30
NiI04_conf-1
C         -2.95762       -1.52608       -0.00024
N         -1.90620       -0.70459       -0.00011
C         -2.06491        0.64087        0.00013
C         -3.36134        1.16961        0.00024
C         -0.79891        1.51517        0.00028
O         -0.87117        2.73347        0.00053
N          0.27085        0.71315        0.00008
C          1.58954        1.06435        0.00016
C          2.48033       -0.07297       -0.00005
N          1.91609       -1.32757       -0.00029
Ni        -0.02357       -1.19294       -0.00024
F         -3.57168        2.46729        0.00047
C         -4.47687        0.33698        0.00012
C         -4.25504       -1.02839       -0.00013
F         -5.27538       -1.87229       -0.00025
C          2.70384       -2.38696       -0.00048
C          4.11039       -2.29554       -0.00045
C          4.69589       -1.05282       -0.00022
C          3.88642        0.11152       -0.00000
C          4.41007        1.43117        0.00026
C          3.54721        2.50360        0.00045
C          2.14537        2.33778        0.00041
H         -5.48414        0.75457        0.00021
H          5.49223        1.57597        0.00029
H          3.95219        3.51843        0.00065
H          1.47298        3.19498        0.00057
H          2.21444       -3.36410       -0.00067
H          4.70809       -3.20782       -0.00062
H          5.78367       -0.94698       -0.00019
H         -2.77807       -2.60227       -0.00043
