30
NiI08_conf-1
C          3.06364       -1.89453        0.00029
N          2.08085       -0.98932        0.00016
C          2.36329        0.33687       -0.00001
C          3.70006        0.74804       -0.00006
C          1.18008        1.32179       -0.00011
O          1.36022        2.52905       -0.00037
N          0.04164        0.61992       -0.00003
C         -1.23927        1.08924       -0.00014
C         -2.22967        0.03717       -0.00003
N         -1.78041       -1.26279        0.00015
Ni         0.16197       -1.30580        0.00021
F          4.02469        2.02482       -0.00023
C          4.73176       -0.18670        0.00007
C          4.40672       -1.53568        0.00025
C         -2.66073       -2.24688        0.00025
C         -4.05304       -2.02914        0.00018
C         -4.52470       -0.73875       -0.00000
C         -3.61350        0.34789       -0.00012
C         -4.01561        1.70957       -0.00030
C         -3.05909        2.69952       -0.00041
C         -1.67789        2.40791       -0.00033
H          5.76492        0.16460        0.00002
H         -2.26124       -3.26408        0.00039
H         -4.73046       -2.88397        0.00027
H         -5.59853       -0.53551       -0.00006
H          5.18124       -2.30337        0.00035
H          2.76055       -2.94330        0.00042
H         -5.08021        1.95180       -0.00037
H         -3.37087        3.74680       -0.00055
H         -0.93125        3.20118       -0.00041
