34
NiI05_conf-1
C         -2.65951       -1.97653       -0.00025
N         -1.65550       -1.08655       -0.00015
C         -1.97635        0.22568        0.00007
C         -3.28744        0.67949        0.00018
C         -0.83861        1.25279        0.00019
O         -1.09640        2.45108        0.00042
N          0.33129        0.61217        0.00004
C          1.59191        1.13235        0.00012
C          2.62116        0.11928       -0.00005
N          2.22095       -1.19713       -0.00023
Ni         0.28317       -1.32657       -0.00023
C         -4.32871       -0.25391        0.00007
O         -5.62674        0.05504        0.00016
C         -6.00525        1.41296        0.00039
C         -3.99447       -1.61701       -0.00015
C          3.13989       -2.14539       -0.00038
C          4.52313       -1.87325       -0.00036
C          4.94498       -0.56608       -0.00017
C          3.99137        0.48393       -0.00001
C          4.33929        1.86063        0.00020
C          3.34540        2.81330        0.00035
C          1.97685        2.46734        0.00031
H         -3.42907        1.76028        0.00036
H         -7.10101        1.42878        0.00043
H         -5.63457        1.93368       -0.89744
H         -5.63450        1.93339        0.89836
H          5.39369        2.14428        0.00023
H          3.61683        3.87179        0.00051
H          1.19849        3.22985        0.00044
H         -2.37299       -3.03055       -0.00043
H         -4.78310       -2.36941       -0.00024
H          6.01008       -0.32118       -0.00015
H          5.23296       -2.70145       -0.00049
H          2.78069       -3.17746       -0.00053
