34
NiI06_conf-2
C          2.95070       -1.04546        0.00003
N          1.80045       -0.37841        0.00003
C          1.81897        0.97801        0.00000
C          3.01623        1.67610       -0.00003
C          0.48716        1.72472        0.00005
O          0.46839        2.94950       -0.00007
N         -0.51459        0.83943        0.00004
C         -1.85808        1.06614        0.00000
C         -2.63733       -0.15064       -0.00000
N         -1.95499       -1.34500        0.00002
Ni        -0.03384       -1.03635        0.00006
C          4.22911        0.98956       -0.00004
C          4.20019       -0.40620       -0.00001
O          5.27400       -1.21233       -0.00001
C          6.55423       -0.63498       -0.00004
C         -2.63883       -2.47449        0.00002
C         -4.04767       -2.51750       -0.00001
C         -4.74974       -1.33663       -0.00003
C         -4.05464       -0.10042       -0.00003
C         -4.70082        1.16386       -0.00006
C         -3.94319        2.31356       -0.00005
C         -2.53213        2.28165       -0.00002
H          2.96454        2.76588       -0.00004
H          5.16928        1.54178       -0.00007
H          7.27147       -1.46391       -0.00003
H          6.72141       -0.01677        0.89871
H          6.72139       -0.01681       -0.89882
H         -5.79186        1.20576       -0.00008
H         -4.44324        3.28522       -0.00007
H         -1.94386        3.19878       -0.00001
H          2.91474       -2.13684        0.00005
H         -5.84267       -1.33519       -0.00006
H         -4.55554       -3.48280       -0.00001
H         -2.05841       -3.40048        0.00004
