36
NiI03_conf-2
O          1.23465        2.58526        0.00010
C          0.94435        1.38597        0.00001
N         -0.22723        0.77442       -0.00005
C         -1.50693        1.42712        0.00001
C         -1.68346        2.28684        1.26645
C         -1.68348        2.28702       -1.26631
C         -2.55682        0.30027       -0.00003
C         -3.92579        0.58621       -0.00010
C         -4.85560       -0.44411       -0.00012
C         -4.40021       -1.76184       -0.00006
C         -3.03213       -1.97900        0.00001
N         -2.13068       -0.98323        0.00002
C          2.07092        0.34413        0.00001
C          3.39430        0.75587       -0.00003
C          4.42810       -0.18662       -0.00005
C          5.86732        0.24469       -0.00013
C          4.05740       -1.53367       -0.00001
C          2.70931       -1.87562        0.00005
N          1.73060       -0.96662        0.00006
Ni        -0.20729       -1.14173        0.00004
H         -0.88512        3.04174        1.28086
H         -2.65843        2.79757        1.29204
H         -1.58758        1.65815        2.16417
H         -0.88510        3.04189       -1.28065
H         -1.58766        1.65845       -2.16412
H         -2.65842        2.79780       -1.29180
H         -4.25430        1.62623       -0.00014
H         -5.92509       -0.22365       -0.00017
H         -5.08887       -2.60747       -0.00007
H         -2.62639       -2.99306        0.00006
H          3.57661        1.83276       -0.00006
H          6.55135       -0.61463        0.00011
H          6.08581        0.86067       -0.88556
H          6.08578        0.86116        0.88495
H          4.81150       -2.32326       -0.00001
H          2.40033       -2.92362        0.00010
