33
NiI09_conf-1
C          1.98183       -2.69754       -0.00006
N          1.21655       -1.60210       -0.00002
C          1.77934       -0.36784        0.00000
C          3.17810       -0.22899       -0.00001
C          0.79346        0.82309        0.00004
O          1.20096        1.97344        0.00011
N         -0.45736        0.35935        0.00001
C         -1.62048        1.07593       -0.00001
C         -2.80010        0.24262        0.00000
N         -2.62058       -1.12127        0.00004
Ni        -0.72605       -1.54619        0.00003
C          3.91439        1.11140        0.00001
F          3.66253        1.82786       -1.08498
F          3.66260        1.82780        1.08506
F          5.24603        0.88927       -0.00004
C          3.96384       -1.38448       -0.00005
C          3.36566       -2.63668       -0.00008
C         -3.68011       -1.90911        0.00005
C         -5.00068       -1.41705        0.00002
C         -5.20416       -0.05838       -0.00002
C         -4.09371        0.82349       -0.00003
C         -4.21541        2.23813       -0.00006
C         -3.08109        3.01736       -0.00007
C         -1.78584        2.45515       -0.00004
H          5.04940       -1.29609       -0.00006
H         -5.21022        2.68803       -0.00008
H         -3.17715        4.10573       -0.00009
H         -0.89639        3.08397       -0.00003
H          1.45795       -3.65593       -0.00009
H          3.96058       -3.55025       -0.00011
H         -6.21543        0.35596       -0.00004
H         -5.83558       -2.11884        0.00003
H         -3.49231       -2.98565        0.00008
