27
NiI02_conf-1
C          2.95835        1.41707        0.00000
N          1.93049        0.56085        0.00000
C          2.18829       -0.76817        0.00000
C          3.48796       -1.26065        0.00000
C          0.99910       -1.73938        0.00000
O          1.19724       -2.95205        0.00000
N         -0.12542       -1.04655        0.00000
C         -1.43053       -1.60103        0.00000
C         -2.42807       -0.45359        0.00000
N         -1.94291        0.80924        0.00000
Ni         0.00000        0.86510        0.00000
C          4.55472       -0.36708        0.00000
C          4.28527        0.99980        0.00000
C         -3.80525       -0.68912        0.00000
C         -4.69184        0.37876        0.00000
C         -4.18049        1.67660        0.00000
C         -2.80427        1.83974        0.00000
H          5.58501       -0.72965        0.00000
H          5.08674        1.73981        0.00000
H          2.70508        2.47986        0.00000
H         -1.63562       -2.24277        0.88107
H         -1.63562       -2.24277       -0.88107
H         -4.16560       -1.71982        0.00000
H         -5.76979        0.20445        0.00000
H          3.61091       -2.34480        0.00000
H         -2.35933        2.83723        0.00000
H         -4.83420        2.54954        0.00000
