33
NiI07_conf-1
C          3.01444       -1.96345       -0.00008
N          2.05494       -1.03476       -0.00003
C          2.37904        0.28324        0.00001
C          3.71990        0.70850        0.00001
C          1.19970        1.27091        0.00010
O          1.38860        2.48269        0.00016
N          0.04706        0.59668       -0.00002
C         -1.22475        1.08967        0.00002
C         -2.23314        0.05459       -0.00001
N         -1.80554       -1.25293       -0.00004
Ni         0.13415       -1.32875       -0.00004
C          4.13340        2.15505        0.00007
C          4.70507       -0.28717       -0.00004
C          4.36175       -1.63213       -0.00009
C         -2.70280       -2.22161       -0.00007
C         -4.09143       -1.98002       -0.00007
C         -4.54128       -0.68207       -0.00003
C         -3.61133        0.38880        0.00001
C         -3.99011        1.75718        0.00006
C         -3.01695        2.73083        0.00010
C         -1.64096        2.41574        0.00008
H          3.72939        2.68224        0.87381
H          3.72932        2.68234       -0.87357
H          5.22988        2.23347        0.00003
H          5.75770        0.00702       -0.00005
H          5.12137       -2.41484       -0.00013
H          2.68650       -3.00527       -0.00012
H         -2.32065       -3.24542       -0.00010
H         -4.78321       -2.82332       -0.00009
H         -5.61148       -0.46048       -0.00002
H         -3.31120        3.78323        0.00014
H         -0.88064        3.19570        0.00011
H         -5.05048        2.01749        0.00007
