34
NiI06_conf-1
C         -3.09740       -0.75447       -0.00001
N         -1.89511       -0.16130       -0.00001
C         -1.80858        1.18331       -0.00000
C         -2.95895        1.97368        0.00000
C         -0.42806        1.86312       -0.00000
O         -0.36425        3.08650        0.00001
N          0.52835        0.93621       -0.00000
C          1.88167        1.05800        0.00000
C          2.58128       -0.21379        0.00000
N          1.83889       -1.37416       -0.00001
Ni        -0.10350       -1.00306       -0.00003
C         -4.20571        1.37519        0.00001
C         -4.28895       -0.02324        0.00000
O         -5.51591       -0.56825        0.00001
C         -5.64457       -1.96713        0.00002
C          2.46057       -2.53869       -0.00001
C          3.86428       -2.65974        0.00000
C          4.62716       -1.51771        0.00001
C          4.00106       -0.24611        0.00001
C          4.72773        0.97429        0.00002
C          4.04747        2.17009        0.00001
C          2.63730        2.22461        0.00001
H         -2.82604        3.05633        0.00001
H         -5.12885        1.95765        0.00001
H         -6.71944       -2.18201        0.00003
H         -5.18970       -2.41780        0.89891
H         -5.18971       -2.41780       -0.89887
H          5.81918        0.94394        0.00002
H          4.60843        3.10788        0.00002
H          2.10702        3.17707        0.00001
H         -3.09170       -1.84400       -0.00001
H          5.71872       -1.57401        0.00002
H          4.31880       -3.65119        0.00000
H          1.82978       -3.43009       -0.00002
