34
NiI05_conf-2
C          2.75532       -1.64747        0.00000
N          1.69220       -0.84288        0.00002
C          1.91053        0.49910        0.00002
C          3.17952        1.04131       -0.00000
C          0.69253        1.42907        0.00007
O          0.84757        2.64357       -0.00005
N         -0.42185        0.69315        0.00010
C         -1.71979        1.11071        0.00005
C         -2.66546        0.01885        0.00001
N         -2.16166       -1.26131        0.00001
Ni        -0.21983       -1.23389        0.00005
C          4.29398        0.19081       -0.00002
O          5.49862        0.76599       -0.00004
C          6.64941       -0.04232       -0.00006
C          4.06970       -1.19159       -0.00002
C         -3.00156       -2.28020       -0.00002
C         -4.40201       -2.11974       -0.00006
C         -4.92693       -0.85032       -0.00007
C         -4.06065        0.27267       -0.00004
C         -4.51767        1.61697       -0.00005
C         -3.60272        2.64573       -0.00002
C         -2.21090        2.41072        0.00003
H          3.28762        2.12636        0.00000
H          7.50809        0.63865       -0.00008
H          6.69608       -0.67919       -0.89938
H          6.69612       -0.67920        0.89925
H         -5.59134        1.81554       -0.00008
H         -3.95767        3.67924       -0.00003
H         -1.49658        3.23347        0.00006
H          2.55287       -2.72115        0.00000
H          4.88241       -1.91642       -0.00003
H         -6.00821       -0.69137       -0.00011
H         -5.04348       -3.00195       -0.00009
H         -2.56077       -3.28017       -0.00002
