30
NiI01_conf-1
C         -3.43601       -1.51472        0.00011
N         -2.35271       -0.72899        0.00004
C         -2.52296        0.61412       -0.00002
C         -3.78690        1.19271       -0.00002
C         -1.27596        1.50318       -0.00017
O         -1.39383        2.72212       -0.00013
N         -0.18628        0.73196       -0.00002
C          1.12551        1.10451       -0.00005
C          2.03253       -0.01956        0.00000
N          1.48532       -1.28171        0.00006
Ni        -0.45738       -1.18562        0.00002
C         -4.91050        0.37180        0.00006
C         -4.73177       -1.00962        0.00013
C          2.28952       -2.32893        0.00011
C          3.69457       -2.21671        0.00011
C          4.26259       -0.96591        0.00005
C          3.43552        0.18617       -0.00001
C          3.93864        1.51404       -0.00008
C          3.05994        2.57379       -0.00014
C          1.66072        2.38654       -0.00013
H         -3.84311        2.28213       -0.00010
H          1.81472       -3.31324        0.00015
H          4.30543       -3.12034        0.00015
H          5.34869       -0.84428        0.00004
H         -3.25431       -2.59189        0.00016
H         -5.58064       -1.69463        0.00020
H         -5.91409        0.80228        0.00007
H          0.97486        3.23325       -0.00019
H          3.45020        3.59443       -0.00021
H          5.01849        1.67544       -0.00009
