30
NiI14_conf-1
C          2.92801       -1.76227        0.15431
N          1.96465       -0.83923        0.05628
C          2.31681        0.45584       -0.11977
C          3.64811        0.84650       -0.20260
C          1.20024        1.50307       -0.22721
O          1.48833        2.68764       -0.39697
N          0.02825        0.90575       -0.10669
C         -1.23572        1.56387       -0.13575
C         -2.30396        0.47094       -0.14891
N         -1.91065       -0.81100        0.03166
Ni         0.01888       -0.99674        0.10570
C          4.64761       -0.11628       -0.10025
C          4.28101       -1.44790        0.08242
C         -1.43180        2.51134        1.05807
C         -2.83639       -1.78332        0.05703
C         -4.19219       -1.54248       -0.10014
C         -4.60933       -0.22685       -0.29929
C         -3.65523        0.78123       -0.32213
H          5.70094        0.16592       -0.16188
H          5.02724       -2.23889        0.16850
H          2.59894       -2.79441        0.29574
H         -1.36436        2.15951       -1.06273
H         -1.34929        1.94621        1.99881
H         -2.40683        3.02166        1.03179
H         -0.63452        3.26644        1.02779
H         -2.46245       -2.79838        0.20815
H         -4.90136       -2.37054       -0.07232
H         -5.66689        0.00785       -0.43677
H          3.84942        1.90911       -0.34647
H         -3.94474        1.82207       -0.47792
