33
NiI15_conf-2
O          0.80121        2.73215        0.00029
C          0.77782        1.50632       -0.00015
N         -0.39144        0.76724       -0.00028
C         -1.71917        1.35775       -0.00004
C         -1.94674        2.20139        1.26968
C         -1.94700        2.20178       -1.26945
C         -2.68462        0.18784       -0.00008
C         -4.07386        0.33446       -0.00019
C         -4.88507       -0.79090       -0.00017
C         -4.29619       -2.05764       -0.00005
C         -2.91593       -2.13638        0.00005
N         -2.13414       -1.04267        0.00004
C          1.92644        0.59723        0.00015
C          3.27682        0.94731       -0.00002
F          3.61670        2.22661       -0.00015
C          4.28751       -0.00359       -0.00013
C          3.87162       -1.36174       -0.00009
F          4.80859       -2.31601       -0.00023
C          2.55416       -1.71339        0.00013
N          1.57348       -0.75495        0.00035
Ni        -0.24335       -1.00044        0.00006
H         -2.95159        2.65032        1.28412
H         -1.81982        1.57743        2.16652
H         -1.19572        3.00132        1.28731
H         -1.19590        3.00163       -1.28703
H         -1.82037        1.57807       -2.16650
H         -2.95181        2.65082       -1.28350
H         -4.50639        1.33535       -0.00029
H         -5.97177       -0.68648       -0.00025
H         -4.89607       -2.96790       -0.00003
H         -2.40463       -3.10283        0.00015
H          5.33846        0.27808       -0.00029
H          2.26200       -2.76614        0.00027
