33
NiI11_conf-1
C          3.25178       -1.12930        0.00006
N          2.10481       -0.43996        0.00002
C          2.15406        0.91026       -0.00002
C          3.36681        1.58987       -0.00003
C          0.83596        1.68689       -0.00011
O          0.84547        2.91157       -0.00010
N         -0.18285        0.82305       -0.00003
C         -1.52180        1.07800       -0.00005
C         -2.32619       -0.12205       -0.00001
N         -1.66915       -1.33063        0.00003
Ni         0.25758       -1.06311        0.00001
C          4.55191        0.86558        0.00002
C          4.51313       -0.53312        0.00008
C          5.76840       -1.36078        0.00021
C         -2.37719       -2.44515        0.00006
C         -3.78664       -2.45801        0.00006
C         -4.46346       -1.26253        0.00001
C         -3.74203       -0.04150       -0.00002
C         -4.36083        1.23648       -0.00007
C         -3.57918        2.36985       -0.00011
C         -2.16902        2.30767       -0.00010
H          5.51446        1.38422        0.00001
H          6.38326       -1.14319       -0.88633
H          5.54293       -2.43606       -0.00046
H          6.38243       -1.14413        0.88756
H          3.15877       -2.21886        0.00008
H         -5.45074        1.30163       -0.00007
H         -4.05842        3.35191       -0.00014
H         -1.56109        3.21194       -0.00013
H         -5.55609       -1.23781        0.00001
H         -4.31499       -3.41226        0.00008
H         -1.81683       -3.38339        0.00009
H          3.33624        2.68031       -0.00009
