33
NiI10_conf-1
C          3.04917       -1.70466       -0.00193
N          1.99765       -0.88019       -0.00089
C          2.23235        0.45433       -0.00093
C          3.51741        0.97384       -0.00153
C          1.02855        1.40111       -0.00101
O          1.20201        2.61365       -0.00125
N         -0.09661        0.68213       -0.00064
C         -1.38896        1.11640       -0.00032
C         -2.34842        0.03651        0.00027
N         -1.86103       -1.24990        0.00045
Ni         0.08297       -1.24686       -0.00031
C          4.62516        0.11954       -0.00194
C          6.02410        0.66657        0.00577
C          4.36444       -1.25299       -0.00269
C         -2.71366       -2.25813        0.00102
C         -4.11189       -2.07988        0.00145
C         -4.62059       -0.80380        0.00126
C         -3.74022        0.30815        0.00066
C         -4.18005        1.65827        0.00042
C         -3.25209        2.67525       -0.00016
C         -1.86333        2.42241       -0.00053
H          6.16925        1.37356       -0.82446
H          6.77454       -0.13053       -0.08119
H          6.21506        1.21842        0.93895
H          5.18026       -1.97854       -0.00455
H          2.82836       -2.77461       -0.00275
H         -2.28564       -3.26365        0.00115
H         -4.76455       -2.95382        0.00191
H         -5.69978       -0.63122        0.00157
H         -5.25108        1.87052        0.00070
H          3.61470        2.06165       -0.00247
H         -1.13855        3.23604       -0.00100
H         -3.59381        3.71320       -0.00036
