31
NiI12_conf-1
C         -3.47490       -1.73403       -0.00000
N         -2.54443       -0.77259       -0.00000
C         -2.94376        0.52117       -0.00001
C         -4.28894        0.87109       -0.00001
C         -1.86623        1.61462       -0.00001
O         -2.19448        2.79920       -0.00001
N         -0.67413        1.04696       -0.00000
C          0.56293        1.74168       -0.00000
C          1.68193        0.71040        0.00000
N          1.33341       -0.60251        0.00000
Ni        -0.59558       -0.86868        0.00000
C         -5.25372       -0.13160       -0.00001
C         -4.83895       -1.46165       -0.00000
C          2.30913       -1.51764        0.00001
C          3.66176       -1.21227        0.00001
C          4.02962        0.14052        0.00001
O          5.28864        0.58766        0.00001
C          6.34893       -0.33679        0.00001
C          3.01308        1.10071        0.00000
H         -4.52697        1.93592       -0.00001
H         -6.31698        0.11832       -0.00001
H          0.69513        2.40155        0.88110
H          0.69513        2.40154       -0.88111
H          7.27397        0.25087        0.00001
H          6.32912       -0.97500       -0.89920
H          6.32912       -0.97499        0.89922
H          3.27914        2.15888       -0.00000
H         -3.10914       -2.76350        0.00000
H         -5.55624       -2.28354       -0.00000
H          1.98954       -2.56224        0.00001
H          4.39209       -2.01988        0.00001
