33
NiI13_conf-1
C         -3.24219       -1.44198        0.00000
N         -2.15486       -0.66249        0.00000
C         -2.31345        0.68109        0.00000
C         -3.57354        1.26791        0.00000
C         -1.05650        1.56121        0.00000
O         -1.18394        2.78812        0.00000
N          0.02132        0.79663        0.00000
C          1.37794        1.27024        0.00000
C          2.26549        0.01159        0.00000
N          1.66988       -1.20261        0.00000
Ni        -0.25771       -1.09830        0.00000
C         -4.70270        0.45469        0.00000
C         -4.53464       -0.92832        0.00000
C          1.66988        2.09793        1.26637
C          1.66988        2.09793       -1.26637
C          2.42824       -2.31117        0.00000
C          3.81309       -2.28103        0.00000
C          4.44237       -1.03691        0.00000
C          3.66053        0.10969        0.00000
H         -3.61775        2.35793        0.00000
H         -5.70350        0.89206        0.00000
H          0.98216        2.95476        1.28110
H          2.70540        2.47076        1.29148
H          1.48949        1.48818        2.16408
H          0.98216        2.95476       -1.28110
H          1.48949        1.48818       -2.16408
H          2.70540        2.47076       -1.29148
H          5.53182       -0.96296        0.00000
H          4.12684        1.09564        0.00000
H         -3.06680       -2.52026        0.00000
H         -5.38844       -1.60723        0.00000
H          1.88915       -3.26106        0.00000
H          4.38113       -3.21195        0.00000
