31
NiI12_conf-2
C          3.58569       -1.56079       -0.00007
N          2.57742       -0.68141       -0.00005
C          2.86599        0.64154        0.00007
C          4.17680        1.10374        0.00016
C          1.69937        1.63934        0.00010
O          1.92425        2.84786        0.00013
N          0.56014        0.97189        0.00006
C         -0.73138        1.55652        0.00001
C         -1.75700        0.43235       -0.00003
N         -1.30271       -0.83815       -0.00018
Ni         0.64368       -0.94421       -0.00014
C          5.22286        0.18598        0.00013
C          4.92187       -1.17425        0.00001
C         -2.20424       -1.83790       -0.00024
C         -3.56750       -1.63806       -0.00014
C         -4.05132       -0.31904        0.00002
O         -5.37758       -0.16129        0.00012
C         -5.91692        1.13886        0.00026
C         -3.12274        0.72261        0.00008
H          4.32489        2.18471        0.00024
H          6.26121        0.52479        0.00020
H         -0.92112        2.20253       -0.88137
H         -0.92119        2.20256        0.88134
H         -5.61429        1.70118        0.89915
H         -7.00669        1.02326        0.00030
H         -5.61437        1.70134       -0.89855
H         -3.42822        1.76901        0.00021
H          3.30811       -2.61745       -0.00017
H          5.70596       -1.93266       -0.00001
H         -1.79710       -2.85120       -0.00037
H         -4.26636       -2.47428       -0.00019
