21
arcl3132_conf-3
C          4.76805        0.53128        0.00007
C          3.69708       -0.53987       -0.00002
O          2.41711        0.13173       -0.00003
C          1.33528       -0.67422       -0.00003
O          1.40256       -1.88759       -0.00002
C          0.05807        0.09543       -0.00002
C          0.02617        1.49454       -0.00003
C         -1.20029        2.15495       -0.00001
C         -2.39412        1.43350        0.00000
C         -2.34413        0.03910        0.00001
Cl        -3.84479       -0.87385        0.00003
C         -1.13230       -0.64008       -0.00001
H          4.68530        1.16536       -0.88699
H          5.75817        0.06600        0.00008
H          4.68524        1.16526        0.88720
H          3.75511       -1.18443        0.88214
H          3.75517       -1.18434       -0.88224
H          0.95588        2.04939       -0.00004
H         -1.23300        3.23962       -0.00002
H         -3.35251        1.93981        0.00001
H         -1.08810       -1.72211       -0.00000
