20
arcl2665_conf2
C          3.37962       -1.36648        0.83308
C          3.15559       -0.56810       -0.46391
C          2.19652        0.59062       -0.23974
O          2.62343        1.72466       -0.07891
C          0.72447        0.32092       -0.16685
C         -0.12462        1.39318        0.14494
C         -1.49926        1.21582        0.22991
C         -2.03155       -0.05426       -0.00076
Cl        -3.76564       -0.29097        0.10428
C         -1.21306       -1.13812       -0.31328
C          0.16348       -0.94316       -0.39463
H          4.10251       -2.17021        0.66827
H          3.76956       -0.71361        1.61906
H          2.45072       -1.81369        1.19824
H          2.78787       -1.22904       -1.25618
H          4.09815       -0.13121       -0.80144
H          0.32377        2.36523        0.31684
H         -2.15666        2.04303        0.47101
H         -1.64905       -2.11427       -0.49004
H          0.79449       -1.78966       -0.63980
