18
arcl3128_conf-1
C          4.07482       -1.71721       -0.00002
C          3.59406       -0.28095       -0.00001
O          2.14870       -0.31147        0.00001
C          1.53466        0.89228        0.00002
O          2.11694        1.95885       -0.00001
C          0.07358        0.75008        0.00001
C         -0.82876        1.78603       -0.00000
C         -2.18086        1.35391       -0.00001
C         -2.27270       -0.01491       -0.00001
Cl        -3.73073       -0.94403       -0.00001
S         -0.72433       -0.80479        0.00002
H          3.71726       -2.24741       -0.88689
H          5.16853       -1.74188       -0.00003
H          3.71728       -2.24741        0.88686
H          3.93247        0.26977        0.88276
H          3.93245        0.26978       -0.88278
H         -0.50744        2.82002       -0.00001
H         -3.04268        2.00813       -0.00002
