20
arcl3150_conf-4
C          4.04230       -0.98010        0.87910
C          3.38021       -0.94936       -0.48768
O          1.95081       -0.73813       -0.37045
C          1.54804        0.54034       -0.22323
O          2.29732        1.49636       -0.20364
C          0.06795        0.64445       -0.09058
C         -0.50465        1.91320        0.05908
N         -1.81899        2.11492        0.18662
C         -2.62039        1.04578        0.17027
C         -2.13524       -0.25690        0.02621
Cl        -3.25283       -1.60451        0.01563
C         -0.77002       -0.47383       -0.10732
H          3.58411       -1.74254        1.51522
H          3.95420       -0.00759        1.36804
H          5.10560       -1.21561        0.76977
H          3.79867       -0.15855       -1.11389
H          3.46747       -1.90817       -1.00225
H          0.13903        2.78728        0.07381
H         -3.68781        1.22107        0.27508
H         -0.36434       -1.47095       -0.22011
