20
arcl3068_conf-2
C         -4.76101        0.53834       -0.00002
C         -3.68877       -0.53120       -0.00001
O         -2.41002        0.14512        0.00001
C         -1.33825       -0.65379        0.00003
O         -1.38576       -1.86950        0.00000
C         -0.04086        0.10777        0.00002
C          1.13617       -0.64708        0.00001
C          2.34094        0.04523       -0.00000
Cl         3.85495       -0.82975       -0.00001
C          2.33939        1.43739       -0.00001
C          1.10056        2.08197        0.00000
N         -0.07331        1.44625        0.00001
H         -5.75041        0.07126       -0.00004
H         -4.67695        1.17272        0.88634
H         -4.67692        1.17273       -0.88637
H         -3.74451       -1.17605       -0.88234
H         -3.74453       -1.17606        0.88231
H          1.08452       -1.72791        0.00001
H          3.26530        1.99975       -0.00002
H          1.05981        3.16875       -0.00000
