21
arcl3151_conf-1
C         -4.57743       -0.71954       -0.00034
C         -3.50764        0.35335        0.00021
O         -2.22846       -0.31603        0.00025
C         -1.14575        0.49876        0.00011
O         -1.21424        1.71206        0.00003
C          0.09144       -0.28544        0.00009
C          0.25726       -1.69298        0.00001
N          1.53588       -2.04799       -0.00006
N          2.22748       -0.87360       -0.00011
C          3.67872       -0.88278        0.00009
C          1.39818        0.19543       -0.00002
Cl         2.00755        1.79898       -0.00011
H         -4.49304       -1.35410        0.88626
H         -4.49273       -1.35349       -0.88735
H         -5.56876       -0.25660       -0.00035
H         -3.56934        0.99855       -0.88154
H         -3.56969        0.99795        0.88238
H         -0.52015       -2.44263        0.00005
H          4.06601       -0.38179       -0.89051
H          4.06570       -0.38087        0.89031
H          3.98309       -1.92759        0.00069
