18
arcl3128_conf-2
C         -4.15392       -0.77723        0.89890
C         -3.50762       -0.75584       -0.47588
O         -2.06852       -0.63703       -0.37357
C         -1.58266        0.61339       -0.20131
O         -2.26368        1.61928       -0.15186
C         -0.11990        0.60697       -0.08420
C          0.67107        1.71643        0.09311
C          2.05505        1.41267        0.17538
C          2.28303        0.06483        0.05801
Cl         3.82192       -0.72162        0.10515
S          0.82706       -0.86006       -0.15443
H         -3.99700        0.17602        1.40823
H         -5.23152       -0.94224        0.79985
H         -3.73631       -1.58163        1.51083
H         -3.66258       -1.69452       -1.01128
H         -3.88391        0.07429       -1.07790
H          0.24882        2.71124        0.15945
H          2.84418        2.13993        0.31357
