21
arcl3119_conf-1
C         -4.56463       -1.41527        0.00002
C         -3.85872       -0.07501       -0.00002
O         -2.43780       -0.33734       -0.00001
C         -1.64209        0.75341        0.00001
O         -2.06749        1.89240        0.00000
C         -0.19698        0.39835        0.00000
C          0.73389        1.44371        0.00001
C          2.09767        1.17401        0.00001
C          2.52238       -0.15509        0.00000
Cl         4.24112       -0.50611       -0.00000
C          1.61137       -1.21136       -0.00000
C          0.24881       -0.92886       -0.00000
H         -4.29771       -1.99643       -0.88701
H         -4.29771       -1.99638        0.88709
H         -5.64816       -1.26429        0.00001
H         -4.10560        0.52332       -0.88217
H         -4.10561        0.52338        0.88209
H          0.36786        2.46412        0.00001
H          2.82596        1.97638        0.00001
H          1.96816       -2.23457       -0.00001
H         -0.47416       -1.73536       -0.00000
