10
arcl1959_conf-1
Cl        -2.22523        0.00000       -0.00001
C         -0.48048       -0.00000        0.00000
C          0.24024        1.19309        0.00002
N          1.57614        1.19634        0.00001
C          2.17344        0.00000       -0.00007
N          1.57614       -1.19633        0.00001
C          0.24024       -1.19309        0.00002
H         -0.26901        2.15349        0.00002
H          3.26034        0.00000        0.00012
H         -0.26901       -2.15350        0.00002
