15
arcl5469_conf-1
F          2.79187        1.09116       -0.60343
C          2.27361        0.00001        0.00226
F          2.73597       -0.00056        1.27432
F          2.79182       -1.09065       -0.60437
C          0.77180        0.00004       -0.03995
C          0.07591       -1.21001       -0.03079
C         -1.31602       -1.21584       -0.01314
C         -1.99857        0.00001       -0.00325
Cl        -3.75199       -0.00002        0.01687
C         -1.31605        1.21586       -0.01314
C          0.07588        1.21006       -0.03079
H          0.62140       -2.14652       -0.04603
H         -1.86757       -2.14837       -0.01028
H         -1.86762        2.14838       -0.01028
H          0.62136        2.14658       -0.04602
