12
arcl1547_conf-1
Cl        -2.26173        0.00000        0.00000
C         -0.50254       -0.00000       -0.00000
C          0.17749       -1.21623       -0.00000
C          1.57281       -1.20705        0.00000
C          2.27226        0.00000       -0.00000
C          1.57281        1.20705       -0.00000
C          0.17749        1.21623        0.00000
H         -0.37655       -2.14748       -0.00000
H          2.11156       -2.14957        0.00000
H          3.35745        0.00000       -0.00000
H          2.11156        2.14957       -0.00000
H         -0.37655        2.14747        0.00000
