21
arcl3132_conf-4
C         -4.31013       -0.39374        0.93389
C         -3.76552        0.01171       -0.42545
O         -2.41939        0.53198       -0.31530
C         -1.42982       -0.38516       -0.26560
O         -1.61466       -1.58519       -0.32666
C         -0.08557        0.24601       -0.13117
C          0.08763        1.63270       -0.05541
C          1.37062        2.16013        0.07106
C          2.48155        1.31818        0.12262
C          2.29107       -0.06194        0.04609
Cl         3.68684       -1.12637        0.11101
C          1.02060       -0.60957       -0.07982
H         -3.73342       -1.22628        1.34225
H         -5.35300       -0.71163        0.83583
H         -4.26979        0.44553        1.63390
H         -4.33694        0.83409       -0.86070
H         -3.75853       -0.83410       -1.11647
H         -0.77823        2.28134       -0.09555
H          1.51267        3.23431        0.13036
H          3.48312        1.72071        0.22090
H          0.86756       -1.67993       -0.13922
