20
arcl3068_conf-4
C         -4.00726       -1.00143        0.87623
C         -3.34409       -0.95560       -0.48995
O         -1.92090       -0.71692       -0.37173
C         -1.54740        0.57451       -0.21910
O         -2.31370        1.50905       -0.19611
C         -0.05104        0.69103       -0.08546
C          0.76141       -0.44787       -0.10425
C          2.13344       -0.26008        0.02729
Cl         3.20785       -1.64064        0.01273
C          2.64842        1.02390        0.17021
C          1.73866        2.08431        0.17483
N          0.41928        1.93763        0.05173
H         -3.93614       -0.02849        1.36701
H         -5.06627       -1.25542        0.76586
H         -3.53590       -1.75692        1.51115
H         -3.77818       -0.17143       -1.11414
H         -3.41436       -1.91494       -1.00656
H          0.33189       -1.43337       -0.21676
H          3.71308        1.19471        0.27424
H          2.10137        3.10377        0.28452
