16
arcl4505_conf-1
C         -3.58940       -0.57124        0.00001
O         -2.70270        0.53610       -0.00001
C         -1.36362        0.28096       -0.00000
C         -0.52997        1.40822       -0.00000
C          0.85033        1.26164        0.00000
C          1.40505       -0.01984       -0.00000
Cl         3.15438       -0.20857        0.00000
C          0.59049       -1.14547       -0.00000
C         -0.79866       -0.99875       -0.00000
H         -4.59583       -0.15175        0.00001
H         -3.45674       -1.19399       -0.89370
H         -3.45673       -1.19399        0.89371
H         -0.98725        2.39138        0.00000
H          1.49574        2.13239        0.00000
H          1.03280       -2.13505       -0.00000
H         -1.42019       -1.88513       -0.00001
