17
arcl1696_conf-1
Cl        -2.44472       -1.28683        0.00000
C         -1.27614        0.02131       -0.00000
C         -1.72194        1.31971       -0.00000
C         -0.75786        2.35607       -0.00000
N          0.54390        2.16200       -0.00000
C          0.99091        0.87365        0.00000
C          2.39292        0.65567        0.00000
C          2.90528       -0.62029       -0.00000
C          2.03810       -1.73900       -0.00000
C          0.67294       -1.56748       -0.00000
C          0.11542       -0.26449       -0.00000
H         -2.78066        1.54821        0.00000
H         -1.09809        3.39017        0.00000
H          3.03047        1.53272       -0.00000
H          3.97960       -0.77529        0.00000
H          2.45510       -2.74100       -0.00000
H          0.00874       -2.42358       -0.00000
