20
arcl3068_conf-1
C         -4.30416       -0.38565        0.92754
C         -3.75584        0.01703       -0.43108
O         -2.41064        0.54147       -0.31557
C         -1.43045       -0.36693       -0.26194
O         -1.59490       -1.57155       -0.31880
C         -0.06735        0.25541       -0.12624
C          1.02467       -0.61680       -0.07947
C          2.28887       -0.05401        0.04647
Cl         3.70297       -1.08065        0.11095
C          2.42666        1.32923        0.12171
C          1.26222        2.09820        0.06558
N          0.03447        1.58849       -0.05574
H         -4.26308        0.45533        1.62518
H         -5.34750       -0.70132        0.82724
H         -3.73082       -1.21898        1.33933
H         -4.32483        0.83946       -0.86857
H         -3.74590       -0.82983       -1.12112
H          0.86567       -1.68530       -0.14090
H          3.40123        1.79179        0.22046
H          1.33016        3.18217        0.12192
