20
arcl3150_conf-1
C          4.74933        0.57331       -0.00007
C          3.69820       -0.51681        0.00000
O          2.40456        0.13312        0.00003
C          1.33799       -0.68759        0.00005
O          1.41302       -1.90010        0.00002
C          0.05144        0.06491        0.00003
C         -0.01625        1.46298        0.00003
N         -1.17001        2.13877        0.00001
C         -2.30734        1.43859       -0.00000
C         -2.33241        0.04046       -0.00001
Cl        -3.86717       -0.80047       -0.00003
C         -1.13892       -0.66678        0.00001
H          4.65556        1.20558        0.88703
H          4.65550        1.20552       -0.88721
H          5.74711        0.12487       -0.00009
H          3.76544       -1.15953       -0.88263
H          3.76550       -1.15948        0.88267
H          0.89548        2.05108        0.00004
H         -3.23804        1.99979       -0.00002
H         -1.10744       -1.74986        0.00001
