13
arcl5972_conf-1
N          4.10931       -0.00001       -0.00002
C          2.94632        0.00001        0.00001
C          1.51432        0.00000        0.00001
C          0.81129        1.21512        0.00001
C         -0.57882        1.21685        0.00000
C         -1.26153       -0.00000       -0.00000
Cl        -3.01192       -0.00000       -0.00000
C         -0.57882       -1.21685        0.00000
C          0.81129       -1.21512        0.00001
H          1.35769        2.15139        0.00001
H         -1.13114        2.14887        0.00000
H         -1.13113       -2.14888        0.00000
H          1.35769       -2.15139        0.00001
