15
arcl1488_conf-1
Cl         2.44610       -0.86920       -0.00000
C          1.04358        0.18611       -0.00000
C          1.16473        1.56333        0.00001
C          0.01421        2.38523        0.00001
C         -1.26192        1.84670        0.00001
C         -1.39851        0.44745       -0.00001
C         -2.47934       -0.49039       -0.00004
N         -2.04494       -1.73860        0.00005
N         -0.68671       -1.65941       -0.00001
C         -0.24070       -0.37238       -0.00001
H          2.15302        2.00874        0.00000
H          0.14790        3.46180        0.00001
H         -2.13627        2.48904       -0.00000
H         -3.54177       -0.29031       -0.00006
H         -0.13709       -2.50311       -0.00001
