10
arcl5737_conf-1
F         -3.09379       -0.00000        0.00000
C         -1.75390        0.00000       -0.00000
C         -1.04236        1.19331       -0.00000
N          0.29405        1.19507        0.00000
C          0.87663        0.00000       -0.00000
Cl         2.62398       -0.00000        0.00000
N          0.29405       -1.19507       -0.00000
C         -1.04236       -1.19331        0.00000
H         -1.55408        2.15199        0.00000
H         -1.55408       -2.15198       -0.00000
