17
arcl8295_conf2
C         -2.50305       -1.84590        0.00014
C         -2.32735       -0.33994       -0.00034
O         -3.29393        0.40520        0.00018
C         -0.93617        0.22310       -0.00017
C         -0.78473        1.61635       -0.00007
C          0.48507        2.18249        0.00006
C          1.62155        1.37102        0.00009
C          1.46197       -0.01333       -0.00001
Cl         2.88473       -1.04528        0.00003
C          0.19876       -0.59766       -0.00014
H         -2.03407       -2.29409       -0.88233
H         -2.03360       -2.29363        0.88261
H         -3.56866       -2.07363        0.00049
H         -1.67970        2.22756       -0.00010
H          0.60103        3.26155        0.00014
H          2.61659        1.80069        0.00019
H          0.11312       -1.67699       -0.00021
