18
arcl3128_conf-4
C          4.37218        0.03580        0.96086
C          3.79681        0.33067       -0.41407
O          2.39748        0.69495       -0.32887
C          1.52449       -0.33284       -0.25197
O          1.83755       -1.50941       -0.27060
C          0.14194        0.14482       -0.14617
C         -0.34214        1.43102       -0.11098
C         -1.75612        1.49256        0.00096
C         -2.31207        0.23880        0.04834
Cl        -3.99592       -0.12766        0.18239
S         -1.13767       -1.03792       -0.04134
H          3.89236       -0.84456        1.39366
H          5.44579       -0.16164        0.87898
H          4.22820        0.88697        1.63227
H          4.27204        1.19955       -0.87379
H          3.89437       -0.53199       -1.07686
H          0.30727        2.29520       -0.16416
H         -2.33749        2.40417        0.04469
