17
arcl2381_conf-1
C          2.62909       -0.04433        0.42252
C          1.52560       -0.97475       -0.03126
O          1.79811       -2.11310       -0.37916
C          0.07250       -0.55711       -0.00671
C         -0.84763       -1.62142        0.03082
C         -2.21801       -1.41178        0.08482
C         -2.71423       -0.10744        0.08665
C         -1.83475        0.96885        0.02780
C         -0.45753        0.74402       -0.01550
Cl         0.54568        2.18787       -0.14147
H          2.34432        0.53433        1.30419
H          3.50864       -0.65466        0.63121
H          2.87254        0.67140       -0.36783
H         -0.43401       -2.62309        0.01659
H         -2.89609       -2.25781        0.12348
H         -3.78301        0.07729        0.12723
H         -2.20413        1.98738        0.00848
