24
arcl4283_conf-2
C          2.29768       -2.46333       -0.88465
O          1.46858       -2.20325        0.25525
C          0.55169       -1.19724        0.09859
C         -0.80679       -1.52687        0.16753
C         -1.74198       -0.50626        0.08020
Cl        -3.45453       -0.90142        0.17193
C         -1.37603        0.82990       -0.08547
C         -0.01658        1.14733       -0.15734
O          0.47115        2.41036       -0.29377
C         -0.46413        3.47503       -0.38230
C          0.95589        0.13137       -0.06985
O          2.28966        0.44538       -0.16173
C          2.86525        0.86250        1.08054
H          1.68464       -2.75283       -1.74692
H          2.94173       -3.29811       -0.60321
H          2.90437       -1.59139       -1.13937
H         -1.09775       -2.56097        0.29792
H         -2.14071        1.59096       -0.14810
H          0.12749        4.38450       -0.48893
H         -1.11780        3.36252       -1.25575
H         -1.08083        3.54554        0.52227
H          3.91917        1.06313        0.87972
H          2.38305        1.77575        1.44499
H          2.77866        0.07058        1.83314
