15
arcl4928_conf-1
C         -3.31475       -0.00001        0.01424
C         -1.80662        0.00002       -0.01061
C         -1.08648       -1.20036       -0.01018
C          0.30712       -1.21197       -0.00313
C          0.99316        0.00001        0.00137
Cl         2.75245       -0.00001        0.00555
C          0.30713        1.21198       -0.00313
C         -1.08647        1.20038       -0.01018
H         -3.69242       -0.00123        1.04398
H         -3.72224       -0.88480       -0.48292
H         -3.72223        0.88594       -0.48085
H         -1.62237       -2.14552       -0.01717
H          0.85570       -2.14681       -0.00524
H          0.85572        2.14682       -0.00525
H         -1.62236        2.14554       -0.01717
