12
arcl5657_conf-1
F         -3.15617        0.00000        0.00000
C         -1.80829       -0.00000       -0.00000
C         -1.13525       -1.21561       -0.00000
C          0.25912       -1.21522        0.00000
C          0.94252       -0.00000       -0.00000
Cl         2.69957        0.00000       -0.00000
C          0.25912        1.21522        0.00000
C         -1.13525        1.21561        0.00000
H         -1.69920       -2.14135       -0.00000
H          0.80980       -2.14818        0.00001
H          0.80980        2.14818       -0.00000
H         -1.69920        2.14135        0.00000
