21
arcl3151_conf-2
C         -4.11859        0.07487        0.91742
C         -3.54572       -0.27580       -0.44592
O         -2.18611       -0.75479       -0.33486
C         -1.22678        0.20033       -0.25188
O         -1.45000        1.39501       -0.28425
C          0.09761       -0.41088       -0.12257
C          0.44865       -1.78334       -0.07721
N          1.75724       -1.96294        0.04925
N          2.28323       -0.70606        0.08848
C          3.71617       -0.51997        0.22373
C          1.32291        0.24152       -0.01116
Cl         1.71110        1.91226        0.01246
H         -4.05680       -0.78119        1.59534
H         -5.17057        0.36103        0.81741
H         -3.57310        0.91434        1.35372
H         -3.56103        0.58885       -1.11335
H         -4.08670       -1.10340       -0.90976
H         -0.21844       -2.63076       -0.13315
H          4.11593        0.02159       -0.63711
H          3.94671        0.03636        1.13559
H          4.15546       -1.51433        0.27395
