14
arcl11119_conf-1
F         -2.87722        0.38117       -0.75125
C         -2.02488       -0.34752       -0.00175
F         -2.04683       -1.61366       -0.46192
F         -2.51257       -0.36453        1.25685
C         -0.63488        0.23607       -0.03159
C         -0.45935        1.62137       -0.01844
C          0.84201        2.11157        0.00302
N          1.92840        1.32542        0.01131
C          1.73051        0.02031       -0.00312
Cl         3.16137       -0.99827        0.00303
C          0.47733       -0.59742       -0.02483
H         -1.30924        2.29269       -0.03283
H          1.03059        3.18160        0.01154
H          0.38154       -1.67472       -0.04235
