15
arcl3763_conf-1
C         -3.23182        0.59201        0.00042
O         -1.79308        0.58417       -0.00008
C         -1.23090       -0.63202       -0.00062
O         -1.84532       -1.68455       -0.00005
C          0.23457       -0.58071       -0.00025
N          0.92359       -1.75618       -0.00000
N          2.25100       -1.60541        0.00024
C          2.44454       -0.28232        0.00026
C          1.21616        0.40770       -0.00001
Cl         1.00571        2.11930       -0.00009
H         -3.61571        0.08737       -0.88887
H         -3.51488        1.64324        0.00081
H         -3.61510        0.08689        0.88971
H          0.49669       -2.67182       -0.00007
H          3.44164        0.13245        0.00045
