20
arcl3487_conf-1
C          3.15107       -1.24387        0.07953
N          2.43701       -0.00000       -0.14354
C          3.15094        1.24393        0.07957
C          1.04962       -0.00003       -0.07894
C          0.31629        1.20662       -0.04965
C         -1.07414        1.20553       -0.01787
C         -1.76910       -0.00001       -0.00458
Cl        -3.52955        0.00001        0.04038
C         -1.07416       -1.20555       -0.01785
C          0.31627       -1.20668       -0.04963
H          4.22222       -1.06147       -0.01408
H          2.87854       -1.99150       -0.67309
H          2.95913       -1.67665        1.07384
H          2.95899        1.67664        1.07391
H          4.22211        1.06166       -0.01408
H          2.87830        1.99156       -0.67300
H          0.82769        2.16011       -0.05133
H         -1.61606        2.14435        0.00194
H         -1.61610       -2.14436        0.00198
H          0.82764       -2.16018       -0.05127
