18
arcl4696_conf-2
C          3.52456        0.32141       -0.00003
O          2.75637       -0.88449       -0.00000
C          1.42188       -0.76504        0.00003
N          0.76312       -1.92522        0.00001
C         -0.56979       -1.82285        0.00000
C         -1.23910       -0.60645        0.00000
Cl        -2.97804       -0.51630       -0.00001
C         -0.43690        0.54924        0.00001
O         -1.03030        1.74455        0.00000
C         -0.17896        2.89899        0.00001
N          0.89105        0.46463        0.00002
H          3.31269        0.92235        0.88859
H          4.56546       -0.00149       -0.00006
H          3.31263        0.92235       -0.88863
H         -1.13720       -2.75010       -0.00001
H          0.45601        2.91222        0.88908
H         -0.85697        3.75147       -0.00000
H          0.45603        2.91222       -0.88906
