14
arcl5498_conf-1
F          2.70903        0.05564       -1.08612
C          2.02178       -0.34046       -0.00000
F          2.70899        0.05556        1.08617
F          1.99862       -1.69294       -0.00005
C          0.61855        0.23364       -0.00000
C         -0.49002       -0.60941       -0.00000
C         -1.74489       -0.00359        0.00000
Cl        -3.18629       -0.98989        0.00000
C         -1.84600        1.38353        0.00000
C         -0.65845        2.11877       -0.00000
N          0.55672        1.56763       -0.00000
H         -0.37960       -1.68498       -0.00001
H         -2.81099        1.87536        0.00000
H         -0.69498        3.20530       -0.00000
