15
arcl3763_conf-2
C          3.54488       -0.13671       -0.00031
O          2.25145        0.49244        0.00003
C          1.19837       -0.36693        0.00043
O          1.30235       -1.57301        0.00012
C         -0.06213        0.38069        0.00019
N         -0.11866        1.74440        0.00011
N         -1.36480        2.23128       -0.00006
C         -2.15460        1.15309       -0.00015
C         -1.39192       -0.03139       -0.00002
Cl        -1.99399       -1.64444       -0.00007
H          3.66536       -0.75977        0.88854
H          4.26745        0.67817       -0.00059
H          3.66483       -0.75993       -0.88912
H          0.67606        2.36574        0.00021
H         -3.22974        1.25363       -0.00031
