20
arcl3150_conf-2
C          4.31096       -0.36217        0.93478
C          3.76120        0.03302       -0.42512
O          2.40456        0.53128       -0.31519
C          1.43117       -0.39828       -0.26607
O          1.62307       -1.59680       -0.32644
C          0.07974        0.21575       -0.13214
C         -0.12815        1.59783       -0.05373
N         -1.34031        2.14863        0.06820
C         -2.39781        1.33422        0.11661
C         -2.28205       -0.05751        0.04571
Cl        -3.71928       -1.05338        0.11728
C         -1.02714       -0.63550       -0.08033
H          3.74944       -1.20480        1.34376
H          4.25611        0.47675        1.63406
H          5.35915       -0.66169        0.83676
H          4.31696        0.86558       -0.86049
H          3.76720       -0.81230       -1.11660
H          0.71694        2.27714       -0.09060
H         -3.37721        1.79476        0.21545
H         -0.88709       -1.70831       -0.13863
