15
arcl1883_conf-1
Cl        -2.58889       -0.79887        0.00000
C         -1.24897        0.28356        0.00000
C         -1.17967        1.66313        0.00000
N          0.11279        2.09061       -0.00001
C          0.85911        0.98667        0.00000
C          2.25964        0.81334        0.00001
C          2.78834       -0.45440        0.00001
C          1.93283       -1.59211       -0.00000
C          0.57591       -1.44207       -0.00001
N          0.05156       -0.17247       -0.00000
H         -2.01544        2.34841       -0.00000
H          2.87779        1.70297        0.00001
H          3.86329       -0.59582        0.00001
H          2.34711       -2.59315        0.00000
H         -0.13521       -2.25723       -0.00001
