21
arcl3132_conf-1
C          3.91066       -1.86169        0.00004
C          3.49831       -0.40422        0.00001
O          2.05335       -0.36635       -0.00002
C          1.50014        0.86372       -0.00004
O          2.14854        1.89162       -0.00001
C          0.00985        0.81432       -0.00002
C         -0.68630        2.02787        0.00001
C         -2.07795        2.02739        0.00003
C         -2.78404        0.82373        0.00002
C         -2.07543       -0.37747       -0.00000
Cl        -2.95920       -1.89660       -0.00001
C         -0.68500       -0.40058       -0.00002
H          3.52890       -2.37473        0.88702
H          5.00196       -1.93852        0.00006
H          3.52893       -2.37476       -0.88694
H          3.86305        0.13019       -0.88228
H          3.86301        0.13022        0.88229
H         -0.11848        2.95084        0.00001
H         -2.62293        2.96571        0.00005
H         -3.86788        0.81151        0.00004
H         -0.14669       -1.33896       -0.00004
