20
arcl3150_conf-3
C          3.92295       -1.86662       -0.00007
C          3.50584       -0.41083        0.00000
O          2.05870       -0.37755        0.00004
C          1.50199        0.84961        0.00006
O          2.13908        1.88340        0.00001
C          0.01353        0.78704        0.00003
C         -0.70881        1.98627       -0.00002
N         -2.04362        2.03899       -0.00005
C         -2.71533        0.88380       -0.00004
C         -2.07614       -0.35896        0.00000
Cl        -3.02988       -1.82727        0.00001
C         -0.68870       -0.42106        0.00003
H          3.54382       -2.38111       -0.88731
H          3.54386       -2.38119        0.88714
H          5.01449       -1.93872       -0.00010
H          3.86695        0.12516        0.88260
H          3.86691        0.12524       -0.88256
H         -0.17089        2.92928       -0.00002
H         -3.80077        0.93805       -0.00007
H         -0.16519       -1.36850        0.00007
