14
arcl4592_conf-1
C         -3.43244       -0.72198        0.00000
O         -2.63387        0.47192       -0.00000
C         -1.30129        0.31078       -0.00000
C         -0.51083        1.48076        0.00000
C          0.84974        1.30583        0.00000
C          1.31505       -0.02388        0.00000
Cl         3.04188       -0.32035       -0.00000
N          0.53677       -1.08458        0.00000
N         -0.79471       -0.91669       -0.00000
H         -3.22739       -1.32557        0.88741
H         -3.22740       -1.32557       -0.88742
H         -4.46467       -0.37317        0.00001
H         -0.98108        2.45709        0.00000
H          1.54377        2.13761        0.00000
