17
arcl1409_conf-1
N         -2.47343       -0.41479        1.48039
S         -2.02788       -0.31346       -0.14918
O         -1.93928       -1.67784       -0.67569
O         -2.87945        0.71369       -0.75380
C         -0.36213        0.34051       -0.07188
C         -0.17547        1.72083       -0.02644
C          1.12496        2.21616        0.04410
C          2.21543        1.34624        0.06563
C          1.99381       -0.02967        0.00882
Cl         3.36404       -1.12391        0.02079
C          0.70581       -0.55391       -0.06380
H         -2.58672       -1.39018        1.74329
H         -3.33129        0.11201        1.62162
H         -1.03205        2.38305       -0.06281
H          1.29516        3.28716        0.07673
H          3.22894        1.72627        0.11830
H          0.53279       -1.62068       -0.12935
