21
arcl3151_conf-4
C         -3.86433        0.44630        0.90885
C         -3.19361        0.53007       -0.45215
O         -1.75435        0.45470       -0.33038
C         -1.23205       -0.78638       -0.22433
O         -1.88972       -1.81042       -0.24501
C          0.22659       -0.76949       -0.08396
C          1.03754       -1.92486        0.03741
N          2.32475       -1.62774        0.15271
N          2.37628       -0.26667        0.10902
C          3.65308        0.41597        0.21088
C          1.14446        0.27755       -0.03143
Cl         0.94160        1.98245       -0.11001
H         -4.94500        0.58421        0.80093
H         -3.48200        1.22341        1.57672
H         -3.68519       -0.53151        1.36103
H         -3.53379       -0.27297       -1.10984
H         -3.37234        1.49486       -0.93134
H          0.70089       -2.95127        0.04115
H          3.84312        1.01170       -0.68532
H          3.67092        1.06974        1.08638
H          4.41153       -0.35809        0.31000
