20
arcl4632_conf-4
C          2.89894       -0.73609        0.91200
O          2.41392       -0.18562       -0.31549
C          1.21667        0.47260       -0.20621
C          1.20772        1.86311       -0.08217
C         -0.00000        2.55517       -0.02652
C         -1.20772        1.86310       -0.08217
C         -1.21667        0.47260       -0.20622
O         -2.41392       -0.18562       -0.31549
C         -2.89894       -0.73609        0.91200
C         -0.00000       -0.22364       -0.26582
Cl         0.00000       -1.95996       -0.46729
H          3.85312       -1.21085        0.67893
H          3.05412        0.05250        1.65889
H          2.20878       -1.48586        1.31353
H          2.16142        2.37826       -0.04996
H         -0.00000        3.63676        0.05961
H         -2.16142        2.37826       -0.04996
H         -3.85312       -1.21086        0.67893
H         -3.05412        0.05250        1.65889
H         -2.20878       -1.48586        1.31353
