17
arcl4008_conf-1
C         -3.43319       -0.01750       -0.22785
O         -2.01484        0.21844       -0.27227
C         -1.25260       -0.82111        0.08807
O         -1.69587       -1.90609        0.40735
C          0.22066       -0.54195        0.02090
C          1.04596       -1.67390       -0.03321
C          2.42429       -1.52641       -0.10743
N          3.03258       -0.33232       -0.11952
C          2.26076        0.75030       -0.05107
C          0.86130        0.70543        0.01824
Cl         0.03678        2.24147        0.14064
H         -3.74157       -0.29170        0.78322
H         -3.89182        0.92201       -0.53174
H         -3.70593       -0.82315       -0.91301
H          0.57984       -2.65170       -0.01332
H          3.07074       -2.39859       -0.15765
H          2.75811        1.71643       -0.04831
