18
arcl4907_conf-1
C         -3.21022       -0.83742        0.01307
C         -1.84511       -0.19600       -0.01116
C         -1.69449        1.19411       -0.01078
C         -0.42905        1.77517       -0.00227
C          0.74044        1.00582        0.00357
C          2.10109        1.64732        0.00849
C          0.56719       -0.38426       -0.00044
Cl         1.98593       -1.43340       -0.00093
C         -0.68899       -0.98276       -0.00898
H         -3.95993       -0.19260       -0.45380
H         -3.53772       -1.02883        1.04212
H         -3.21107       -1.79650       -0.51261
H         -2.57614        1.82868       -0.01881
H         -0.33660        2.85763       -0.00435
H          2.01356        2.73624        0.01150
H          2.67988        1.34554        0.88757
H          2.68403        1.35078       -0.86965
H         -0.76194       -2.06508       -0.01527
