20
arcl4632_conf-1
C          3.59874       -0.14993        0.00001
O          2.34428        0.51284       -0.00000
C          1.21997       -0.24705       -0.00000
C          1.21441       -1.64848       -0.00000
C          0.00000       -2.32839       -0.00000
C         -1.21441       -1.64848       -0.00000
C         -1.21997       -0.24705       -0.00000
O         -2.34428        0.51284       -0.00000
C         -3.59874       -0.14993        0.00001
C         -0.00000        0.44756       -0.00000
Cl        -0.00000        2.19142       -0.00000
H          4.35093        0.63916        0.00002
H          3.72538       -0.77273        0.89402
H          3.72539       -0.77273       -0.89401
H          2.14427       -2.20133       -0.00001
H          0.00000       -3.41372       -0.00001
H         -2.14427       -2.20133       -0.00000
H         -4.35093        0.63916        0.00001
H         -3.72538       -0.77273        0.89402
H         -3.72539       -0.77273       -0.89401
