11
arcl1648_conf-1
Cl         2.24275        0.00981        0.00000
C          0.49045        0.01707       -0.00000
C         -0.20985        1.21982       -0.00000
C         -1.60149        1.15746       -0.00000
C         -2.21834       -0.09367        0.00001
N         -1.54229       -1.24886        0.00000
C         -0.20797       -1.19203       -0.00001
H          0.31905        2.16613       -0.00000
H         -2.19633        2.06474       -0.00000
H         -3.30287       -0.17267        0.00000
H          0.33253       -2.13488        0.00000
