21
arcl3151_conf-3
C          3.85817       -1.26926       -0.00080
C          3.25492        0.12042        0.00030
O          1.81933       -0.03807        0.00010
C          1.10569        1.10727        0.00019
O          1.60390        2.21719        0.00043
C         -0.34059        0.86825       -0.00006
C         -1.32614        1.88593       -0.00028
N         -2.55810        1.39496       -0.00037
N         -2.39702        0.04187       -0.00015
C         -3.55839       -0.82857       -0.00011
C         -1.08868       -0.30708        0.00008
Cl        -0.62072       -1.96119        0.00035
H          3.54622       -1.82746       -0.88778
H          3.54607       -1.82893        0.88518
H          4.95015       -1.20125       -0.00065
H          3.54644        0.69927       -0.88136
H          3.54635        0.69779        0.88295
H         -1.15195        2.95201       -0.00039
H         -3.56403       -1.46242       -0.89031
H         -3.56471       -1.46155        0.89069
H         -4.43208       -0.17979       -0.00078
