14
arcl4592_conf-2
C         -3.54709        0.46252        0.00000
O         -2.59864       -0.59751       -0.00000
C         -1.28823       -0.27931       -0.00000
C         -0.79038        1.03781       -0.00000
C          0.58134        1.18603       -0.00000
C          1.34210        0.01252       -0.00000
Cl         3.08979        0.11588        0.00000
N          0.82432       -1.20547       -0.00000
N         -0.49708       -1.35600       -0.00000
H         -4.52568       -0.01639        0.00001
H         -3.45075        1.08860       -0.89530
H         -3.45074        1.08859        0.89531
H         -1.44223        1.90192       -0.00001
H          1.05517        2.16029       -0.00000
