12
arcl312_conf-1
N          3.55649       -1.27002        0.00012
C          2.55525       -0.68121       -0.00010
C          1.29051        0.01240       -0.00006
C          0.10812       -0.73810       -0.00004
C         -1.09173       -0.03345       -0.00000
Cl        -2.60665       -0.89736        0.00001
C         -1.07688        1.35826        0.00003
C          0.16636        1.99499        0.00002
N          1.33676        1.35423       -0.00002
H          0.13239       -1.82044       -0.00006
H         -1.99812        1.92799        0.00006
H          0.21634        3.08076        0.00004
