17
arcl1511_conf-1
Cl        -2.42648       -1.30826        0.00000
C         -1.27215        0.01661       -0.00000
C         -1.74235        1.30922        0.00000
C         -0.83584        2.39523        0.00000
C          0.52024        2.16956        0.00000
C          1.01935        0.84431       -0.00000
C          2.41301        0.56118       -0.00001
N          2.93067       -0.64799        0.00000
C          2.06141       -1.69582        0.00000
C          0.69245       -1.56429       -0.00000
C          0.12165       -0.26821       -0.00000
H         -2.81106        1.49006        0.00000
H         -1.22724        3.40708        0.00001
H          1.22337        2.99697        0.00000
H          3.11254        1.39738        0.00001
H          2.51694       -2.68247        0.00001
H          0.05429       -2.43935       -0.00000
