17
arcl4008_conf-2
C         -3.63725       -0.44784       -0.15812
O         -2.25293       -0.82822       -0.23208
C         -1.37873        0.14338        0.11431
O         -1.71757        1.25684        0.44567
C          0.03040       -0.35959        0.04810
C          0.28128       -1.73873        0.08368
C          1.59044       -2.20376        0.06211
N          2.65574       -1.39432       -0.00196
C          2.42898       -0.08264       -0.04644
C          1.14832        0.48463       -0.02010
Cl         1.04644        2.22240       -0.11098
H         -3.83632        0.39457       -0.82405
H         -4.19860       -1.32756       -0.46968
H         -3.90094       -0.16109        0.86245
H         -0.55131       -2.42854        0.13169
H          1.79578       -3.27058        0.09600
H          3.29501        0.57094       -0.10609
