20
arcl2665_conf1
C          4.47474       -0.53837        0.00006
C          2.98836       -0.88064       -0.00000
C          2.09814        0.35400       -0.00006
O          2.57979        1.47680        0.00000
C          0.61125        0.16842       -0.00004
C         -0.00023       -1.09258       -0.00004
C         -1.38753       -1.21161       -0.00002
C         -2.16518       -0.05455        0.00000
Cl        -3.91298       -0.19585        0.00003
C         -1.58116        1.21354        0.00000
C         -0.19594        1.31505       -0.00002
H          5.07899       -1.44962        0.00010
H          4.73681        0.05449       -0.87940
H          4.73673        0.05450        0.87954
H          2.72666       -1.49251        0.87379
H          2.72674       -1.49253       -0.87381
H          0.60019       -1.99522       -0.00005
H         -1.86361       -2.18501       -0.00002
H         -2.20705        2.09828        0.00002
H          0.29225        2.28318       -0.00002
