15
arcl5016_conf-1
C          2.67362       -1.35952        0.00962
C          1.51667       -0.39139       -0.01184
C          1.73372        0.99152       -0.00866
C          0.66159        1.88214        0.00246
C         -0.65158        1.41333        0.00795
C         -0.86173        0.03660        0.00108
Cl        -2.50973       -0.58209        0.00065
C          0.19938       -0.86455       -0.01006
H          3.55882       -0.93137       -0.46863
H          2.42480       -2.29180       -0.50491
H          2.94965       -1.61770        1.03907
H          2.75119        1.37151       -0.01664
H          0.84586        2.95200        0.00270
H         -1.49398        2.09474        0.01290
H         -0.00085       -1.93058       -0.01869
