21
arcl3132_conf-2
C         -4.03312       -0.98097        0.88331
C         -3.37012       -0.95278       -0.48356
O         -1.94429       -0.73285       -0.36795
C         -1.54883        0.54982       -0.22455
O         -2.31134        1.49664       -0.20905
C         -0.06875        0.67146       -0.09137
C          0.47311        1.95357        0.05072
C          1.84956        2.11300        0.17916
C          2.69345        1.00167        0.16829
C          2.13790       -0.26973        0.02672
Cl         3.19579       -1.67305        0.01323
C          0.76547       -0.45230       -0.10380
H         -3.56977       -1.73699        1.52338
H         -5.09505       -1.22367        0.77550
H         -3.95029       -0.00538        1.36695
H         -3.79532       -0.16802       -1.11311
H         -3.45335       -1.91492       -0.99298
H         -0.20000        2.80274        0.05718
H          2.27500        3.10513        0.28917
H          3.76687        1.11396        0.26808
H          0.34647       -1.44364       -0.21264
