24
arcl4283_conf-5
C         -1.93534        2.81214        0.01835
O         -0.67544        2.44971       -0.54788
C         -0.11849        1.24131       -0.25766
C          1.28140        1.23435       -0.18715
C          1.95337        0.04671        0.06204
Cl         3.70860        0.05937        0.16207
C          1.27243       -1.15553        0.23476
C         -0.11699       -1.14823        0.15039
O         -0.78687       -2.33998        0.31250
C         -1.35922       -2.85786       -0.89613
C         -0.83292        0.04095       -0.08377
O         -2.20350        0.01974       -0.21857
C         -2.92622       -0.32670        0.97149
H         -2.76545        2.32865       -0.49845
H         -2.00362        3.89583       -0.09448
H         -1.97432        2.56132        1.08488
H          1.81067        2.16935       -0.31800
H          1.79075       -2.08785        0.41771
H         -1.84111       -3.79881       -0.62578
H         -2.09777       -2.16622       -1.31172
H         -0.57630       -3.04839       -1.63949
H         -3.98232       -0.31907        0.69685
H         -2.63927       -1.31732        1.33098
H         -2.74921        0.41468        1.75988
