24
arcl4283_conf-1
C          0.46904        3.59146       -0.13985
O          1.12661        2.33476       -0.18852
C          0.35762        1.21376       -0.13984
C         -1.03834        1.22166       -0.01673
C         -1.70030        0.00011        0.04031
Cl        -3.45491        0.00023        0.19579
C         -1.03851       -1.22153       -0.01673
C          0.35746       -1.21382       -0.13983
O          1.12629       -2.33493       -0.18850
C          0.46855       -3.59154       -0.13985
C          1.05875       -0.00008       -0.21923
O          2.41593       -0.00018       -0.40290
C          3.16185       -0.00015        0.81514
H         -0.22098        3.71672       -0.98323
H          1.25624        4.34314       -0.20328
H         -0.08333        3.72234        0.79912
H         -1.60070        2.14247        0.03862
H         -1.60099       -2.14226        0.03863
H          1.25564       -4.34333       -0.20328
H         -0.08385       -3.72235        0.79912
H         -0.22149       -3.71669       -0.98323
H          4.21607       -0.00024        0.53180
H          2.94478        0.89608        1.40804
H          2.94466       -0.89627        1.40816
