20
arcl4632_conf-2
C         -3.51281       -0.37583        0.24131
O         -2.16789       -0.80703        0.10226
C         -1.20004        0.13936        0.01004
C         -1.43309        1.51855        0.05274
C         -0.36564        2.41057       -0.05813
C          0.93674        1.94915       -0.20511
C          1.18351        0.57379       -0.24857
O          2.46581        0.12814       -0.43915
C          3.15280       -0.21998        0.76560
C          0.11985       -0.32798       -0.13993
Cl         0.41902       -2.04627       -0.21600
H         -4.11219       -1.28502        0.29093
H         -3.65619        0.20488        1.16082
H         -3.83333        0.22490       -0.61860
H         -2.44049        1.89745        0.16581
H         -0.56143        3.47755       -0.02884
H          1.77775        2.62628       -0.30144
H          4.15233       -0.53952        0.46690
H          2.64990       -1.04029        1.28865
H          3.22926        0.64578        1.43535
