18
arcl3314_conf-2
C          3.18050        0.00267        0.78414
C          2.52271       -0.35371       -0.53875
O          1.16608       -0.80977       -0.35106
C          0.20670        0.11574       -0.19095
N          0.50340        1.40950       -0.23827
C         -0.48410        2.30509       -0.08746
C         -1.80976        1.95237        0.12042
C         -2.12645        0.59029        0.17370
C         -1.11427       -0.34102        0.01765
Cl        -1.45847       -2.05294        0.07461
H          3.12806       -0.84012        1.47905
H          4.23432        0.25016        0.61957
H          2.68967        0.86738        1.23539
H          3.01890       -1.20284       -1.01381
H          2.52535        0.49757       -1.22342
H         -0.18598        3.34955       -0.13503
H         -2.57658        2.70894        0.24016
H         -3.14427        0.25253        0.33361
