18
arcl4696_conf-1
C          3.84755       -0.34557        0.00001
O          2.76120        0.58815        0.00000
C          1.52295        0.07813       -0.00002
N          1.36215       -1.24381       -0.00001
C          0.08826       -1.67182       -0.00000
C         -0.99095       -0.80949       -0.00000
Cl        -2.63225       -1.39117        0.00001
C         -0.69193        0.57334       -0.00000
O         -1.70531        1.43977        0.00000
C         -1.36790        2.83617        0.00000
N          0.55811        1.01010       -0.00001
H          3.81549       -0.98218       -0.88772
H          4.74944        0.26642        0.00002
H          3.81547       -0.98218        0.88775
H         -0.07276       -2.74650       -0.00000
H         -0.78604        3.09227        0.88817
H         -2.32417        3.35771       -0.00001
H         -0.78603        3.09226       -0.88816
