18
arcl3128_conf-3
C         -4.71248        1.00043       -0.00004
C         -3.78076       -0.19373       -0.00001
O         -2.42787        0.31662        0.00005
C         -1.45500       -0.61920        0.00012
O         -1.65843       -1.81911        0.00004
C         -0.12093       -0.00925        0.00003
C          0.23641        1.31815       -0.00002
C          1.64202        1.51802       -0.00002
C          2.31961        0.32458        0.00001
Cl         4.03665        0.12489        0.00004
S          1.27195       -1.06127       -0.00010
H         -4.55257        1.61946       -0.88713
H         -5.75197        0.65943       -0.00009
H         -4.55265        1.61946        0.88706
H         -3.91834       -0.82602        0.88231
H         -3.91826       -0.82601       -0.88235
H         -0.49653        2.11455       -0.00002
H          2.13314        2.48227       -0.00001
