21
arcl3119_conf-2
C         -4.43938       -0.44159        0.95008
C         -3.82621       -0.55678       -0.43547
O         -2.38663       -0.68113       -0.36136
C         -1.69582        0.47216       -0.22485
O         -2.21608        1.57082       -0.18302
C         -0.22857        0.24121       -0.13594
C          0.60279        1.35957       -0.00275
C          1.98169        1.20725        0.08603
C          2.52251       -0.07824        0.04111
Cl         4.26123       -0.28142        0.15297
C          1.71191       -1.20579       -0.09040
C          0.33307       -1.04064       -0.17886
H         -4.15059       -1.29218        1.57390
H         -4.11449        0.48172        1.43430
H         -5.53117       -0.42515        0.87276
H         -4.14942       -1.46653       -0.94565
H         -4.07169        0.31274       -1.04922
H          0.14803        2.34311        0.02905
H          2.63337        2.06682        0.18896
H          2.15786       -2.19286       -0.12238
H         -0.31303       -1.90384       -0.28097
