18
arcl3314_conf-1
C          3.68378        0.00831        0.00002
C          2.39764       -0.79283       -0.00001
O          1.31442        0.15729       -0.00001
C          0.06527       -0.33195       -0.00001
N         -0.13659       -1.64468       -0.00001
C         -1.39852       -2.10133        0.00000
C         -2.51129       -1.27243        0.00001
C         -2.30113        0.11114        0.00001
C         -1.00343        0.59260       -0.00000
Cl        -0.68545        2.31064       -0.00000
H          3.74392        0.64555        0.88638
H          4.54305       -0.66896        0.00002
H          3.74394        0.64556       -0.88633
H          2.31149       -1.43582        0.88175
H          2.31151       -1.43580       -0.88177
H         -1.50990       -3.18286        0.00000
H         -3.51380       -1.68445        0.00001
H         -3.13079        0.80927        0.00001
