18
arcl3314_conf-3
C          3.18062       -0.00220       -0.78414
C          2.52273        0.35332        0.53878
O          1.16609        0.80958        0.35165
C          0.20668       -0.11568        0.19100
N          0.50345       -1.40948        0.23783
C         -0.48403       -2.30501        0.08694
C         -1.80983       -1.95234       -0.12026
C         -2.12653       -0.59030       -0.17331
C         -1.11427        0.34096       -0.01746
Cl        -1.45860        2.05289       -0.07483
H          3.12844        0.84099       -1.47854
H          4.23442       -0.25000       -0.61945
H          2.69007       -0.86670       -1.23606
H          3.01891        1.20250        1.01375
H          2.52599       -0.49792        1.22349
H         -0.18598       -3.34952        0.13430
H         -2.57650       -2.70909       -0.23967
H         -3.14430       -0.25223       -0.33292
