20
arcl3068_conf-3
C         -3.86518       -1.88270        0.00001
C         -3.47382       -0.41950       -0.00002
O         -2.02950       -0.35924       -0.00001
C         -1.49914        0.88445        0.00001
O         -2.15470        1.89949       -0.00000
C          0.00677        0.83125        0.00000
C          0.68015       -0.39516        0.00000
C          2.07079       -0.36416       -0.00000
Cl         2.97643       -1.86102       -0.00000
C          2.73844        0.85589       -0.00000
C          1.95867        2.01518        0.00000
N          0.62541        2.01912        0.00000
H         -3.47668       -2.39045        0.88719
H         -4.95525       -1.97500        0.00000
H         -3.47666       -2.39049       -0.88714
H         -3.84606        0.10990        0.88215
H         -3.84605        0.10986       -0.88221
H          0.13351       -1.32774        0.00000
H          3.82062        0.90497       -0.00000
H          2.44295        2.98900       -0.00000
