13
arcl6003_conf-1
N          3.56745       -1.30245       -0.00052
C          2.55580       -0.72954        0.00045
C          1.31061       -0.01971        0.00023
C          1.30381        1.38352        0.00009
C          0.08826        2.06101       -0.00008
C         -1.11700        1.35894       -0.00012
C         -1.09326       -0.03594        0.00001
Cl        -2.60367       -0.92267       -0.00004
C          0.10620       -0.73945        0.00017
H          2.24289        1.92430        0.00012
H          0.07441        3.14563       -0.00018
H         -2.06621        1.88193       -0.00026
H          0.11266       -1.82230        0.00028
