17
arcl8295_conf1
C          3.51022        0.14054       -0.00027
C          2.21462       -0.64724        0.00047
O          2.22239       -1.86761       -0.00018
C          0.91677        0.10619        0.00025
C          0.85187        1.50525        0.00013
C         -0.38518        2.14760       -0.00004
C         -1.56557        1.40646       -0.00010
C         -1.48965        0.01215        0.00001
Cl        -2.97531       -0.92530       -0.00007
C         -0.26702       -0.64420        0.00018
H          3.57400        0.78593       -0.88282
H          3.57496        0.78591        0.88222
H          4.34492       -0.55994       -0.00073
H          1.76036        2.09639        0.00017
H         -0.43515        3.23163       -0.00013
H         -2.53262        1.89589       -0.00023
H         -0.20167       -1.72535        0.00028
