24
arcl4283_conf-4
C          2.59207       -2.36993        0.16950
O          1.26262       -2.35961       -0.35011
C          0.47208       -1.26151       -0.19946
C         -0.89999       -1.53872       -0.08504
C         -1.79451       -0.49066        0.02655
Cl        -3.51225       -0.83910        0.18443
C         -1.38235        0.84236        0.02774
C         -0.02007        1.11290       -0.10197
O          0.49850        2.37292       -0.15964
C         -0.40489        3.46728       -0.11394
C          0.92473        0.06709       -0.21087
O          2.25273        0.34616       -0.42957
C          2.94605        0.97683        0.65198
H          3.28006       -1.81200       -0.46684
H          2.88137       -3.42221        0.20320
H          2.62164       -1.95903        1.18542
H         -1.22387       -2.57103       -0.07828
H         -2.11411        1.63268        0.11033
H         -0.95975        3.49265        0.83195
H          0.20869        4.36462       -0.19748
H         -1.11570        3.43316       -0.94810
H          3.98496        1.07029        0.33058
H          2.53471        1.96609        0.86319
H          2.90073        0.35989        1.55838
