24
arcl4283_conf-3
C          1.64748       -2.67953       -1.04999
O          0.85220       -2.38094        0.10491
C          0.16766       -1.19308        0.04894
C         -1.22731       -1.22944        0.05960
C         -1.93014       -0.02811        0.07995
Cl        -3.68781       -0.06662        0.09815
C         -1.28021        1.20216        0.06968
C          0.11622        1.23063        0.06465
O          0.73900        2.44813        0.14203
C          1.55553        2.79684       -0.98272
C          0.84978        0.03395        0.05575
O          2.22640        0.06904        0.06785
C          2.78140       -0.10821        1.37881
H          1.01500       -2.74969       -1.94309
H          2.10831       -3.64935       -0.85605
H          2.42059       -1.92272       -1.20440
H         -1.73373       -2.18613        0.06366
H         -1.82846        2.13542        0.08368
H          1.94577        3.79400       -0.77282
H          2.38063        2.09164       -1.10695
H          0.95366        2.82847       -1.89915
H          3.86549       -0.06010        1.26284
H          2.44658        0.69174        2.04793
H          2.49567       -1.08187        1.78944
