20
arcl4632_conf-3
C          3.11606        0.62707        0.51085
O          2.33324        0.22175       -0.61596
C          1.18133       -0.44593       -0.29133
C          1.17237       -1.84205       -0.29031
C          0.00001       -2.53629       -0.00000
C         -1.17235       -1.84207        0.29031
C         -1.18132       -0.44594        0.29133
O         -2.33324        0.22173        0.61596
C         -3.11605        0.62706       -0.51085
C         -0.00000        0.25257        0.00000
Cl        -0.00001        2.00046       -0.00000
H          3.99568        1.13066        0.10734
H          2.56178        1.32037        1.15239
H          3.42928       -0.24286        1.10137
H          2.09607       -2.35858       -0.52697
H          0.00001       -3.62133       -0.00001
H         -2.09606       -2.35860        0.52696
H         -3.99568        1.13064       -0.10734
H         -3.42926       -0.24286       -1.10138
H         -2.56177        1.32037       -1.15237
