19
mol1233_conf-2
C         -3.24289       -0.36554       -0.29207
O         -1.95242       -0.30940       -0.84429
C         -0.87479       -0.27864        0.06210
C         -0.88980       -1.44728        1.03737
C          0.32727       -0.33292       -0.89806
Br         2.03865       -0.08029       -0.02871
O         -0.90878        0.87369        0.84992
C         -0.83716        2.11028        0.18578
H         -3.36518        0.36240        0.52728
H         -3.48921       -1.37260        0.08747
H         -3.94735       -0.11684       -1.09669
H          0.04841       -1.46984        1.60641
H         -1.71492       -1.33065        1.75203
H         -1.00755       -2.39486        0.49314
H          0.23112        0.44687       -1.66199
H          0.35265       -1.30794       -1.39709
H         -1.52747        2.15248       -0.67325
H         -1.12729        2.87996        0.91260
H          0.18773        2.33128       -0.16087
