27
mol1174_clust-4
C         -5.85932       -0.25167        0.65573
O         -4.55381        0.25016        0.42908
C         -3.65128       -0.63044       -0.01968
O         -3.91078       -1.78903       -0.22500
C         -2.30844       -0.01625       -0.23081
C         -2.05484        1.33585        0.02351
C         -0.78323        1.85573       -0.19165
C          0.25827        1.04676       -0.66454
C          1.64545        1.61260       -0.84585
C          2.44513        1.67313        0.46325
C          2.65508        0.34000        1.15853
Br         3.71623       -0.91429        0.10135
C         -0.00817       -0.30482       -0.91713
C         -1.27703       -0.83278       -0.70243
H         -6.45606        0.59457        1.01385
H         -6.29028       -0.65487       -0.27210
H         -5.84566       -1.05286        1.40879
H         -2.86086        1.97422        0.38696
H         -0.59413        2.91473        0.00554
H          1.57780        2.63180       -1.25653
H          2.20136        1.00997       -1.58025
H          1.91415        2.32132        1.18289
H          3.42124        2.14680        0.27312
H          3.20091        0.46442        2.10128
H          1.70533       -0.17183        1.36198
H          0.79507       -0.95058       -1.28141
H         -1.48971       -1.88546       -0.89773
