19
mol1233_conf-16
C         -2.48645       -1.79387       -0.04998
O         -1.98821       -0.60448       -0.59109
C         -0.85013        0.00540       -0.00593
C         -0.87701       -0.05542        1.52222
C          0.36813       -0.69150       -0.62391
Br         2.08377       -0.04891        0.01027
O         -0.81641        1.30494       -0.48781
C         -1.85783        2.16133       -0.09885
H         -2.94164       -1.65283        0.94624
H         -3.26629       -2.15211       -0.73510
H         -1.71766       -2.58475        0.03147
H         -0.70168       -1.07669        1.88788
H         -0.08469        0.58992        1.92270
H         -1.84625        0.28918        1.90916
H          0.33677       -0.51888       -1.70534
H          0.34337       -1.76792       -0.41650
H         -1.75909        2.48759        0.95188
H         -2.84361        1.68981       -0.24098
H         -1.79435        3.04914       -0.74081
