19
mol1233_conf-10
C          0.40489        2.16769       -0.57810
O          1.37191        1.20717       -0.26049
C          0.99991        0.01643        0.38537
C          0.64052        0.25686        1.84343
C         -0.08358       -0.77075       -0.39842
Br        -1.94130       -0.27295       -0.10304
O          2.14899       -0.77852        0.41582
C          2.79920       -1.04707       -0.80200
H          0.94774        3.05580       -0.92853
H         -0.27584        1.83692       -1.38223
H         -0.21001        2.45715        0.29197
H         -0.22333        0.92561        1.94582
H          0.40247       -0.69533        2.33677
H          1.51453        0.70558        2.33268
H         -0.01284       -1.82343       -0.10140
H          0.08857       -0.68539       -1.47844
H          3.77476       -1.48039       -0.54674
H          2.95595       -0.12959       -1.38836
H          2.25062       -1.78176       -1.41945
