12
mol1933_conf-1
N          2.39619       -1.08857        0.43852
C          1.83646        0.03109       -0.08842
O          2.05322        0.41160       -1.21878
C          0.93555        0.82513        0.85398
C         -0.35848        1.22468        0.17494
Br        -1.53975       -0.30443       -0.08466
H          2.96446       -1.66429       -0.16986
H          2.09856       -1.46757        1.32510
H          0.73863        0.29740        1.79914
H          1.48618        1.74872        1.10177
H         -0.92528        1.95183        0.76735
H         -0.15165        1.63077       -0.82271
