27
mol1174_clust-3
C         -6.26241       -1.00133       -0.46423
O         -4.85848       -0.93768       -0.28519
C         -4.33702        0.28479       -0.12670
O         -5.00430        1.28831       -0.13169
C         -2.85729        0.25733        0.05380
C         -2.12334       -0.92958        0.05592
C         -0.74065       -0.89970        0.22980
C         -0.06232        0.31083        0.40391
C          1.43603        0.40134        0.59096
C          2.18886       -0.92119        0.66263
C          3.67831       -0.77142        0.91726
Br         4.62325        0.11140       -0.54527
C         -0.81336        1.49671        0.39910
C         -2.18947        1.47532        0.22716
H         -6.56874       -0.44265       -1.36048
H         -6.51014       -2.06266       -0.57681
H         -6.78772       -0.57866        0.40447
H         -2.63973       -1.88058       -0.07926
H         -0.19313       -1.84350        0.22622
H          1.63532        0.97970        1.51010
H          1.85230        1.00626       -0.23211
H          2.03672       -1.50245       -0.26115
H          1.78843       -1.53364        1.48983
H          3.88148       -0.16819        1.81216
H          4.16368       -1.74779        1.03245
H         -0.30131        2.45349        0.53278
H         -2.77293        2.39787        0.22368
