12
mol1933_conf-3
N         -3.26352       -0.86088        0.00028
C         -2.27671        0.07526       -0.00022
O         -2.50174        1.26699       -0.00023
C         -0.86083       -0.49134       -0.00038
C          0.16859        0.62087        0.00051
Br         1.97938       -0.09077       -0.00002
H         -3.07126       -1.85153        0.00046
H         -4.22445       -0.54538        0.00042
H         -0.73013       -1.13761       -0.88385
H         -0.73027       -1.13895        0.88214
H          0.07509        1.25524        0.88876
H          0.07506        1.25663       -0.88674
