19
mol1233_conf-4
C         -2.42455       -1.61703       -0.46899
O         -1.97004       -0.80217        0.58268
C         -0.82610       -0.00963        0.35206
C         -0.62179        0.76736        1.64615
C          0.35578       -0.92892        0.01572
Br         2.05940       -0.01983       -0.14586
O         -0.99479        0.80475       -0.77110
C         -1.96547        1.81550       -0.68764
H         -3.47435       -1.85989       -0.25677
H         -2.36876       -1.09801       -1.43978
H         -1.86125       -2.56468       -0.53810
H          0.17293        1.51507        1.52810
H         -1.55768        1.26395        1.93348
H         -0.34729        0.07625        2.45425
H          0.18538       -1.41314       -0.95238
H          0.46526       -1.68886        0.79848
H         -2.92014        1.43324       -0.28747
H         -1.63044        2.66133       -0.06283
H         -2.13110        2.18437       -1.70824
