12
mol1933_conf-4
N          3.26339        0.86105       -0.00143
C          2.27679       -0.07519        0.00030
O          2.50204       -1.26694        0.00114
C          0.86058        0.49115        0.00058
C         -0.16881       -0.62114       -0.00199
Br        -1.97931        0.09081        0.00022
H          3.07094        1.85166        0.00186
H          4.22447        0.54590        0.00160
H          0.73043        1.13974       -0.88126
H          0.72938        1.13604        0.88500
H         -0.07587       -1.25405       -0.89136
H         -0.07505       -1.25849        0.88411
