19
mol1233_conf-8
C          3.23586       -0.60484       -0.20966
O          1.92374       -1.08405       -0.33705
C          0.89020       -0.22682        0.06552
C          0.92634        0.01018        1.57515
C         -0.34734       -1.01711       -0.38400
Br        -2.03211       -0.12423       -0.02602
O          0.98670        0.94274       -0.70621
C          0.76010        2.20930       -0.15029
H          3.57351       -0.57846        0.84238
H          3.88368       -1.29922       -0.76004
H          3.34047        0.40082       -0.64729
H          1.82905        0.56011        1.87352
H          0.04819        0.57096        1.91989
H          0.93536       -0.96593        2.07899
H         -0.38448       -1.99275        0.11385
H         -0.28179       -1.15405       -1.46876
H          0.84386        2.92719       -0.97700
H          1.50926        2.48049        0.61442
H         -0.24772        2.30518        0.28646
