27
mol1174_clust-5
C          5.62254       -1.52788       -0.50927
O          4.36499       -0.89811       -0.68388
C          3.82459       -0.34323        0.40679
O          4.35701       -0.36369        1.48748
C          2.50408        0.29391        0.13052
C          1.92502        0.29734       -1.14109
C          0.68980        0.90791       -1.34108
C          0.00976        1.52405       -0.28492
C         -1.35048        2.14778       -0.48722
C         -2.49748        1.31431        0.10632
C         -2.60038       -0.05838       -0.53449
Br        -4.08304       -1.09110        0.18725
C          0.60213        1.51520        0.98521
C          1.83426        0.90878        1.19359
H          5.55147       -2.34796        0.21979
H          6.37378       -0.80900       -0.15161
H          5.90952       -1.91847       -1.49182
H          2.44720       -0.17993       -1.97097
H          0.24440        0.90698       -2.33949
H         -1.52880        2.30517       -1.56317
H         -1.36987        3.14424       -0.01824
H         -3.44679        1.85539       -0.02950
H         -2.35135        1.19849        1.19240
H         -2.77385        0.01091       -1.61689
H         -1.69783       -0.65867       -0.36235
H          0.08860        1.99520        1.82279
H          2.30097        0.90162        2.18030
