27
mol1174_clust-1
C          5.85976       -0.25188        0.65495
O          4.55426        0.25007        0.42847
C          3.65144       -0.63058       -0.01956
O          3.91069       -1.78933       -0.22438
C          2.30863       -0.01627       -0.23060
C          2.05530        1.33598        0.02318
C          0.78372        1.85597       -0.19186
C         -0.25805        1.04698       -0.66410
C         -1.64522        1.61289       -0.84521
C         -2.44500        1.67290        0.46387
C         -2.65535        0.33954        1.15860
Br        -3.71670       -0.91413        0.10084
C          0.00812       -0.30477       -0.91615
C          1.27694       -0.83284       -0.70155
H          6.45683        0.59449        1.01218
H          5.84623       -1.05249        1.40864
H          6.29025       -0.65590       -0.27275
H          2.86153        1.97439        0.38611
H          0.59485        2.91509        0.00491
H         -2.20110        1.01063       -1.57995
H         -1.57754        2.63230       -1.25537
H         -3.42100        2.14688        0.27389
H         -1.91391        2.32063        1.18384
H         -1.70576       -0.17261        1.36200
H         -3.20126        0.46375        2.10133
H         -0.79530       -0.95056       -1.28000
H          1.48940       -1.88564       -0.89645
