19
mol1233_conf-12
C         -2.84364       -1.18856       -0.62263
O         -2.15001        0.01364       -0.45288
C         -0.93269        0.02527        0.27263
C         -0.96970       -0.84776        1.51771
C          0.14771       -0.41267       -0.74008
Br         1.96476       -0.26272       -0.08109
O         -0.74514        1.31894        0.73005
C         -0.67467        2.34912       -0.22312
H         -3.27223       -1.56698        0.32171
H         -3.67039       -0.98363       -1.31583
H         -2.22075       -1.98809       -1.06551
H         -1.06300       -1.91421        1.27111
H         -0.04319       -0.70003        2.08586
H         -1.81799       -0.53759        2.14295
H          0.08083        0.20328       -1.64408
H          0.00308       -1.46240       -1.02273
H         -0.74559        3.29397        0.33053
H         -1.50560        2.29535       -0.94358
H          0.28736        2.34271       -0.76668
