19
mol1233_conf-13
C         -0.83343        1.97438        0.58832
O         -1.11812        0.67870        1.05378
C         -0.90711       -0.45478        0.26657
C         -0.60531       -1.59648        1.22167
C          0.17232       -0.29249       -0.82334
Br         1.97642        0.02583       -0.17255
O         -2.08138       -0.84927       -0.41916
C         -2.89187        0.13298       -0.99865
H          0.24778        2.13992        0.45408
H         -1.35196        2.22510       -0.35253
H         -1.19370        2.66276        1.36405
H         -0.53188       -2.54405        0.67140
H          0.32925       -1.40969        1.76479
H         -1.43354       -1.66387        1.93866
H         -0.05998        0.53449       -1.50500
H          0.20975       -1.22193       -1.40121
H         -3.28620        0.83656       -0.24674
H         -3.73848       -0.39050       -1.46205
H         -2.37728        0.71000       -1.79076
