19
mol1233_conf-11
C          0.67468        2.34912       -0.22311
O          0.74514        1.31893        0.73005
C          0.93269        0.02526        0.27262
C          0.96970       -0.84777        1.51770
C         -0.14772       -0.41267       -0.74009
Br        -1.96476       -0.26272       -0.08109
O          2.15000        0.01363       -0.45290
C          2.84365       -1.18855       -0.62262
H         -0.28735        2.34271       -0.76668
H          0.74557        3.29397        0.33055
H          1.50561        2.29537       -0.94356
H          1.06299       -1.91422        1.27110
H          1.81800       -0.53760        2.14293
H          0.04320       -0.70003        2.08585
H         -0.00308       -1.46239       -1.02274
H         -0.08084        0.20329       -1.64408
H          3.27226       -1.56695        0.32173
H          2.22077       -1.98810       -1.06548
H          3.67039       -0.98363       -1.31582
