19
mol1233_conf-5
C         -0.60373        2.11491       -0.26637
O         -1.36659        1.04456       -0.76910
C         -1.00543       -0.26141       -0.41287
C         -2.02104       -1.14857       -1.13665
C          0.39760       -0.66655       -0.90263
Br         1.90353       -0.11544        0.19069
O         -1.01614       -0.44809        0.96979
C         -2.24009       -0.25264        1.62900
H         -0.38504        1.99369        0.80685
H          0.35220        2.23199       -0.80437
H         -1.20225        3.02426       -0.41276
H         -1.93572       -2.18844       -0.79220
H         -3.03761       -0.78087       -0.94539
H         -1.85289       -1.11028       -2.22164
H          0.55864       -0.25622       -1.90700
H          0.46418       -1.75955       -0.94498
H         -2.01685       -0.18291        2.70152
H         -2.73426        0.67839        1.30505
H         -2.93609       -1.09576        1.47246
