19
mol1233_conf-7
C         -0.76060        2.20916       -0.15031
O         -0.98663        0.94239       -0.70606
C         -0.89013       -0.22695        0.06603
C         -0.92609        0.01033        1.57562
C          0.34738       -1.01733       -0.38342
Br         2.03211       -0.12406       -0.02629
O         -1.92368       -1.08442       -0.33622
C         -3.23575       -0.60460       -0.21069
H         -0.84428        2.92682       -0.97724
H         -1.51015        2.48023        0.61405
H          0.24705        2.30537        0.28674
H         -0.93501       -0.96571        2.07959
H         -0.04796        0.57124        1.92022
H         -1.82879        0.56025        1.87402
H          0.28155       -1.15476       -1.46810
H          0.38481       -1.99272        0.11490
H         -3.57316       -0.57315        0.84130
H         -3.88364       -1.30176       -0.75748
H         -3.34051        0.39898       -0.65302
