27
mol1174_clust-2
C         -5.62252       -1.52791       -0.50925
O         -4.36498       -0.89811       -0.68387
C         -3.82459       -0.34322        0.40679
O         -4.35701       -0.36367        1.48748
C         -2.50408        0.29392        0.13052
C         -1.92500        0.29731       -1.14109
C         -0.68978        0.90788       -1.34108
C         -0.00976        1.52405       -0.28494
C          1.35048        2.14778       -0.48724
C          2.49748        1.31431        0.10631
C          2.60038       -0.05838       -0.53449
Br         4.08303       -1.09110        0.18726
C         -0.60214        1.51524        0.98519
C         -1.83427        0.90881        1.19358
H         -5.55150       -2.34778        0.22004
H         -6.37385       -0.80896       -0.15189
H         -5.90936       -1.91878       -1.49173
H         -2.44718       -0.17998       -1.97096
H         -0.24438        0.90693       -2.33949
H          1.36988        3.14425       -0.01826
H          1.52880        2.30516       -1.56320
H          2.35135        1.19850        1.19239
H          3.44679        1.85538       -0.02951
H          1.69783       -0.65867       -0.36235
H          2.77385        0.01090       -1.61689
H         -0.08862        1.99526        1.82277
H         -2.30099        0.90168        2.18028
