12
mol295_conf-8
Br        -1.31478       -0.42774        0.01409
C         -0.58527        1.37295        0.08769
C          0.83411        1.49362       -0.43955
C          1.91518        0.76332        0.37324
C          2.08186       -0.65901        0.06233
N          2.27002       -1.76950       -0.19441
H         -0.64859        1.68434        1.13901
H         -1.26648        1.99916       -0.50129
H          0.87824        1.18077       -1.49377
H          1.07764        2.56876       -0.42136
H          2.89157        1.23766        0.18958
H          1.71961        0.86132        1.45337
