21
mol229_conf-1
Br         2.40197       -0.14563       -0.09795
C          0.84313        0.91188        0.40929
C         -0.46669        0.37730       -0.15166
C         -0.83662       -1.00581        0.39451
C         -2.18171       -1.48966       -0.14681
C         -3.29662       -0.48251        0.13495
C         -2.93813        0.90206       -0.40455
C         -1.59125        1.38497        0.13563
H          0.83265        0.92770        1.50815
H          1.04754        1.92670        0.04489
H         -0.35816        0.29751       -1.24887
H         -0.04280       -1.72876        0.15279
H         -0.88477       -0.94769        1.49801
H         -2.43071       -2.47077        0.28683
H         -2.09767       -1.64363       -1.23736
H         -3.45771       -0.41580        1.22594
H         -4.24733       -0.82823       -0.30053
H         -3.72588        1.62979       -0.15407
H         -2.88947        0.86083       -1.50713
H         -1.66859        1.53338        1.22861
H         -1.33859        2.36679       -0.29720
