12
mol295_conf-9
Br         1.31478       -0.42774        0.01408
C          0.58529        1.37296        0.08777
C         -0.83408        1.49361       -0.43956
C         -1.91521        0.76335        0.37319
C         -2.08190       -0.65899        0.06232
N         -2.27001       -1.76951       -0.19435
H          1.26652        1.99922       -0.50111
H          0.64854        1.68429        1.13911
H         -0.87815        1.18072       -1.49377
H         -1.07760        2.56874       -0.42146
H         -1.71971        0.86137        1.45331
H         -2.89157        1.23768        0.18946
