21
mol229_conf-5
Br         2.25671        0.09040       -0.10803
C          0.52585       -0.76603       -0.38212
C         -0.46487       -0.51027        0.75140
C         -1.73391       -1.35857        0.53713
C         -2.61330       -0.84392       -0.60601
C         -2.96618        0.63250       -0.41775
C         -1.71360        1.48995       -0.22891
C         -0.84610        0.96871        0.91861
H          0.16813       -0.39795       -1.35165
H          0.74184       -1.83779       -0.47694
H          0.01955       -0.85085        1.68126
H         -1.46369       -2.41437        0.37106
H         -2.31808       -1.33346        1.47307
H         -3.52986       -1.45114       -0.67036
H         -2.09434       -0.97641       -1.57157
H         -3.60937        0.73610        0.47471
H         -3.55834        0.99657       -1.27206
H         -1.12945        1.50249       -1.16607
H         -1.99340        2.53738       -0.03625
H         -1.40673        1.06968        1.86387
H          0.06162        1.58144        1.02807
