21
mol229_conf-6
Br         1.78896       -0.41811        0.00002
C          0.89306        1.32458       -0.00003
C         -0.63331        1.36084       -0.00004
C         -1.30765        0.81589        1.27327
C         -1.57504       -0.69212        1.26078
C         -2.33001       -1.11250        0.00002
C         -1.57501       -0.69220       -1.26074
C         -1.30763        0.81581       -1.27333
H          1.28481        1.83211        0.89095
H          1.28482        1.83208       -0.89102
H         -0.81140        2.45269       -0.00008
H         -0.71345        1.09495        2.15890
H         -2.27744        1.33302        1.37942
H         -2.15057       -0.96410        2.15990
H         -0.62406       -1.24397        1.31684
H         -3.33113       -0.64294       -0.00000
H         -2.49650       -2.20108        0.00006
H         -0.62403       -1.24405       -1.31674
H         -2.15052       -0.96424       -2.15986
H         -2.27742        1.33292       -1.37953
H         -0.71341        1.09482       -2.15897
