14
mol248_conf-1
Br         2.05043        0.12655       -0.02033
C          0.42340       -0.86013        0.33135
C         -0.77410       -0.26010       -0.37518
O         -1.87549       -1.12420       -0.20463
C         -3.00341       -0.35234        0.15466
C         -2.51233        1.08611       -0.02670
O         -1.12967        0.95896        0.19417
H          0.24901       -0.85318        1.41397
H          0.57833       -1.88728       -0.01756
H         -0.56786       -0.13953       -1.46073
H         -3.85577       -0.60147       -0.49576
H         -3.28427       -0.55935        1.20122
H         -2.92720        1.79703        0.69907
H         -2.71749        1.45520       -1.04967
