16
mol234_conf-2
Br         2.04657        0.08689        0.01413
C          0.33382       -0.71869        0.45638
C         -0.75473       -0.35311       -0.54991
C         -1.23271        1.10355       -0.46412
C         -2.41074        1.00281        0.50516
C         -2.98869       -0.35718        0.12917
O         -1.88067       -1.15562       -0.23957
H          0.07241       -0.38398        1.46896
H          0.48279       -1.80470        0.46549
H         -0.39718       -0.60533       -1.56241
H         -0.43817        1.78789       -0.13662
H         -1.57865        1.44232       -1.45237
H         -2.06005        0.99863        1.54941
H         -3.13487        1.82215        0.39880
H         -3.68912       -0.26499       -0.72289
H         -3.52343       -0.85228        0.95349
