16
mol234_conf-5
Br         1.69986       -0.31619        0.13848
C          0.63462        1.21092       -0.43214
C         -0.86485        0.97598       -0.34676
C         -1.42295        0.64172        1.04482
C         -2.56062       -0.32455        0.71685
C         -1.98978       -1.05159       -0.49676
O         -1.25525       -0.07350       -1.20502
H          0.92665        1.40397       -1.47118
H          0.93475        2.06073        0.19490
H         -1.32299        1.91547       -0.71812
H         -0.65484        0.13494        1.64929
H         -1.74737        1.53971        1.58849
H         -3.47220        0.22696        0.43735
H         -2.81080       -1.00039        1.54634
H         -2.76001       -1.46315       -1.16562
H         -1.32475       -1.87854       -0.18429
