19
mol238_conf-4
Br         2.25433        0.08879       -0.09531
C          0.53063       -0.77679       -0.37788
C         -0.47523       -0.49787        0.73711
C         -0.86873        0.98161        0.86561
C         -1.79425        1.41963       -0.26436
O         -2.93896        0.60804       -0.34703
C         -2.63255       -0.73940       -0.58709
C         -1.75514       -1.32705        0.51623
H          0.74877       -1.85016       -0.44488
H          0.18629       -0.43227       -1.36115
H         -0.00732       -0.82267        1.68028
H          0.02593        1.62229        0.89346
H         -1.39857        1.12089        1.82150
H         -1.25253        1.41466       -1.23388
H         -2.14638        2.44751       -0.09903
H         -2.13805       -0.84875       -1.57565
H         -3.58924       -1.27787       -0.64526
H         -1.51334       -2.37745        0.28524
H         -2.33377       -1.32874        1.45388
