12
mol295_conf-7
Br        -2.02636       -0.19994        0.00001
C         -0.37208        0.81498       -0.00006
C          0.84729       -0.09092       -0.00003
C          2.14070        0.73797       -0.00001
C          3.34197       -0.09724        0.00026
N          4.28026       -0.77119       -0.00014
H         -0.40248        1.45561        0.89125
H         -0.40249        1.45551       -0.89144
H          0.82699       -0.74585        0.88391
H          0.82701       -0.74591       -0.88392
H          2.18230        1.39393       -0.88435
H          2.18222        1.39404        0.88424
