18
mol267_conf-3
Br        -2.14881       -0.50510       -0.26940
C         -1.41479        1.27923       -0.00087
C         -0.25762        1.30915        0.99093
C          0.98339        0.59040        0.51874
C          1.85089        1.20359       -0.39278
C          2.98098        0.53839       -0.86314
C          3.26161       -0.75562       -0.42545
C          2.40611       -1.37593        0.48319
C          1.27565       -0.70711        0.95028
H         -2.25190        1.89650        0.34817
H         -1.10254        1.62907       -0.99345
H         -0.59421        0.90120        1.95612
H         -0.02089        2.37313        1.16328
H          1.64086        2.22105       -0.73631
H          3.64821        1.03414       -1.57180
H          4.14791       -1.27872       -0.79106
H          2.61855       -2.38924        0.83113
H          0.60482       -1.20117        1.65746
