12
mol2074_clust-2
O         -3.18479       -0.43016       -0.19886
C         -1.89334       -0.34390        0.34405
C         -1.19323        0.83389       -0.31102
C          0.17670        1.15156        0.25329
Br         1.48502       -0.27068       -0.04084
H         -3.60830       -1.22224        0.13986
H         -1.30722       -1.26488        0.16431
H         -1.91932       -0.18610        1.44245
H         -1.82437        1.72806       -0.16987
H         -1.13191        0.65949       -1.39654
H          0.60482        2.04380       -0.21819
H          0.14812        1.30774        1.34005
