19
mol238_conf-3
Br         2.13332        0.00000       -0.34641
C          0.96631       -0.00001        1.22125
C         -0.52157       -0.00000        0.89999
C         -0.99745       -1.25074        0.15585
C         -2.49553       -1.16794       -0.12143
O         -2.83407        0.00000       -0.82139
C         -2.49553        1.16795       -0.12143
C         -0.99745        1.25074        0.15586
H          1.24786        0.89297        1.79423
H          1.24786       -0.89299        1.79422
H         -1.01146       -0.00001        1.89477
H         -0.45851       -1.33272       -0.80195
H         -0.77407       -2.15983        0.73816
H         -2.82691       -2.01544       -0.73777
H         -3.05568       -1.21266        0.83748
H         -2.82691        2.01545       -0.73777
H         -3.05568        1.21266        0.83748
H         -0.45851        1.33272       -0.80194
H         -0.77406        2.15982        0.73817
