19
mol238_conf-2
Br         2.38674       -0.14390       -0.09229
C          0.82927        0.92293        0.39451
C         -0.47451        0.37888       -0.16791
C         -0.85130       -1.00083        0.37899
C         -2.22948       -1.41808       -0.12130
O         -3.21348       -0.46726        0.19588
C         -2.94883        0.78983       -0.36461
C         -1.61893        1.36125        0.12053
H          1.03288        1.93380        0.01854
H          0.81094        0.95178        1.49283
H         -0.36536        0.29824       -1.26524
H         -0.10211       -1.75260        0.08699
H         -0.86688       -0.96304        1.48226
H         -2.54343       -2.36531        0.33902
H         -2.19318       -1.57597       -1.22013
H         -2.93706        0.72049       -1.47323
H         -3.78291        1.44773       -0.08225
H         -1.68509        1.54201        1.20736
H         -1.43317        2.33360       -0.36424
