16
mol234_conf-4
Br         2.01638       -0.11958        0.04216
C          0.36232        0.86124        0.30123
C         -0.76319        0.37000       -0.59795
C         -2.07475        1.13666       -0.32649
C         -2.82477        0.18915        0.60999
C         -2.38255       -1.16526        0.06858
O         -1.04308       -0.98963       -0.33854
H          0.59074        1.91442        0.09330
H          0.09369        0.74788        1.36003
H         -0.44603        0.48080       -1.64967
H         -1.90606        2.13635        0.09905
H         -2.63163        1.26668       -1.26675
H         -3.91439        0.32922        0.59105
H         -2.48470        0.31681        1.64978
H         -3.01252       -1.46794       -0.79088
H         -2.41996       -1.97257        0.81466
