12
mol295_conf-5
Br         1.89404       -0.14603       -0.05191
C          0.03106       -0.09983        0.49308
C         -0.76098        0.92285       -0.30420
C         -2.22823        1.00000        0.14508
C         -2.94976       -0.26325       -0.02772
N         -3.49071       -1.27495       -0.16535
H         -0.35974       -1.11619        0.35191
H          0.02817        0.13187        1.56648
H         -0.71365        0.67631       -1.37569
H         -0.31143        1.91962       -0.18280
H         -2.29667        1.28892        1.20621
H         -2.75556        1.77645       -0.42934
