18
mol267_conf-2
Br         2.14880       -0.50510       -0.26940
C          1.41479        1.27923       -0.00087
C          0.25762        1.30915        0.99094
C         -0.98339        0.59040        0.51874
C         -1.85089        1.20359       -0.39279
C         -2.98098        0.53840       -0.86315
C         -3.26161       -0.75562       -0.42545
C         -2.40611       -1.37593        0.48319
C         -1.27565       -0.70711        0.95028
H          2.25190        1.89649        0.34817
H          1.10254        1.62907       -0.99345
H          0.02089        2.37313        1.16329
H          0.59421        0.90120        1.95612
H         -1.64085        2.22105       -0.73632
H         -3.64821        1.03414       -1.57181
H         -4.14791       -1.27872       -0.79107
H         -2.61856       -2.38924        0.83113
H         -0.60483       -1.20117        1.65746
