19
mol238_conf-7
Br        -2.38656        0.14396       -0.09225
C         -0.82936       -0.92319        0.39435
C          0.47446       -0.37912       -0.16800
C          0.85106        1.00063        0.37885
C          2.22922        1.41817       -0.12125
O          3.21329        0.46744        0.19601
C          2.94883       -0.78968       -0.36455
C          1.61899       -1.36124        0.12051
H         -1.03314       -1.93394        0.01814
H         -0.81109       -0.95220        1.49268
H          0.36542       -0.29855       -1.26538
H          0.10180        1.75232        0.08677
H          0.86657        0.96289        1.48217
H          2.19305        1.57599       -1.22011
H          2.54297        2.36545        0.33916
H          2.93712       -0.72023       -1.47318
H          3.78298       -1.44752       -0.08212
H          1.43340       -2.33363       -0.36429
H          1.68510       -1.54200        1.20739
