18
mol267_conf-4
Br         2.95653       -0.02141       -0.00002
C          1.09949        0.55965       -0.00004
C          0.14710       -0.62200        0.00010
C         -1.32528       -0.25858        0.00004
C         -2.26946       -1.29507       -0.00001
C         -3.63398       -1.02523       -0.00005
C         -4.08679        0.29501       -0.00004
C         -3.16110        1.33394        0.00001
C         -1.79207        1.05946        0.00005
H          0.98013        1.18684        0.89244
H          0.98009        1.18666       -0.89264
H          0.35922       -1.25130        0.87985
H          0.35923       -1.25153       -0.87948
H         -1.92352       -2.33269       -0.00001
H         -4.35000       -1.85026       -0.00008
H         -5.15731        0.51062       -0.00007
H         -3.50267        2.37155        0.00001
H         -1.09091        1.89646        0.00008
