19
mol238_conf-8
Br         2.25440        0.08885       -0.09532
C          0.53070       -0.77694       -0.37779
C         -0.47519       -0.49782        0.73713
C         -1.75507       -1.32699        0.51632
C         -2.63236       -0.73953       -0.58718
O         -2.93916        0.60783       -0.34704
C         -1.79462        1.41967       -0.26434
C         -0.86883        0.98165        0.86545
H          0.74892       -1.85030       -0.44455
H          0.18629       -0.43260       -1.36110
H         -0.00746       -0.82254        1.68040
H         -1.51324       -2.37744        0.28546
H         -2.33379       -1.32859        1.45394
H         -3.58888       -1.27832       -0.64538
H         -2.13764       -0.84859       -1.57566
H         -1.25302        1.41491       -1.23391
H         -2.14696        2.44745       -0.09874
H         -1.39854        1.12104        1.82142
H          0.02575        1.62249        0.89306
