18
mol267_conf-6
Br         2.14855       -0.50526        0.26960
C          1.41498        1.27915        0.00028
C          0.25787        1.30884       -0.99152
C         -0.98320        0.59031       -0.51898
C         -1.27630       -0.70687       -0.95098
C         -2.40681       -1.37538       -0.48361
C         -3.26157       -0.75510        0.42579
C         -2.98008        0.53856        0.86397
C         -1.84989        1.20344        0.39333
H          1.10282        1.62940        0.99274
H          2.25224        1.89612       -0.34891
H          0.59445        0.90040       -1.95652
H          0.02118        2.37275       -1.16436
H         -0.60603       -1.20088       -1.65875
H         -2.61996       -2.38845       -0.83184
H         -4.14792       -1.27800        0.79159
H         -3.64670        1.03428        1.57323
H         -1.63919        2.22064        0.73725
