18
mol267_conf-1
Br        -2.91967       -0.00000       -0.08034
C         -1.01466       -0.00001       -0.48477
C         -0.15807        0.00001        0.77570
C          1.30943        0.00001        0.41413
C          1.99703        1.20295        0.21721
C          3.33806        1.20521       -0.16245
C          4.01247       -0.00001       -0.35387
C          3.33805       -1.20521       -0.16244
C          1.99702       -1.20294        0.21722
H         -0.82790       -0.89117       -1.09755
H         -0.82790        0.89114       -1.09757
H         -0.40273       -0.88500        1.38237
H         -0.40273        0.88504        1.38234
H          1.47484        2.15177        0.37001
H          3.86017        2.15371       -0.30649
H          5.06389       -0.00001       -0.64906
H          3.86015       -2.15372       -0.30648
H          1.47483       -2.15176        0.37003
