12
mol295_conf-4
Br        -1.73373       -0.33808       -0.05390
C         -0.56213        1.20404        0.17088
C          0.85769        0.94571       -0.29935
C          1.58211       -0.13621        0.50967
C          2.96199       -0.33434        0.06702
N          4.05037       -0.47436       -0.29452
H         -0.60053        1.46073        1.23787
H         -1.02272        2.01652       -0.40324
H          0.85623        0.67431       -1.36605
H          1.40997        1.89637       -0.21500
H          1.59837        0.12616        1.57985
H          1.04869       -1.09604        0.42527
