12
mol2074_clust-1
O         -2.93830       -0.76157       -0.29159
C         -2.55429        0.50303        0.18510
C         -1.09757        0.73747       -0.18221
C         -0.18802       -0.31170        0.43203
Br         1.67738       -0.03668       -0.05062
H         -3.84375       -0.93475       -0.02347
H         -3.16645        1.31150       -0.25940
H         -2.67301        0.57475        1.28564
H         -0.99702        0.71581       -1.27864
H         -0.79898        1.74280        0.15368
H         -0.22547       -0.29002        1.52942
H         -0.45810       -1.31637        0.08787
