16
mol234_conf-3
Br         2.07521       -0.13671       -0.04387
C          0.47570        0.89819        0.33068
C         -0.76802        0.31598       -0.29896
C         -2.01920        1.19703       -0.10089
C         -3.16110        0.16679        0.01691
C         -2.42319       -1.18517       -0.04314
O         -1.09124       -0.90794        0.30733
H          0.66138        1.91061       -0.04878
H          0.36524        0.92735        1.42253
H         -0.59222        0.16523       -1.38457
H         -1.92439        1.78597        0.82425
H         -2.15391        1.90327       -0.93179
H         -3.90066        0.26184       -0.79036
H         -3.69682        0.28229        0.96920
H         -2.47142       -1.60797       -1.06613
H         -2.81491       -1.93716        0.65498
