21
mol229_conf-2
Br        -2.40216       -0.14556       -0.09812
C         -0.84311        0.91140        0.40989
C          0.46669        0.37702       -0.15131
C          1.59112        1.38494        0.13565
C          2.93796        0.90229       -0.40485
C          3.29688       -0.48217        0.13465
C          2.18211       -1.48957       -0.14680
C          0.83707       -1.00600        0.39485
H         -1.04738        1.92647        0.04609
H         -0.83269        0.92660        1.50875
H          0.35793        0.29714       -1.24848
H          1.33816        2.36671       -0.29715
H          1.66872        1.53342        1.22859
H          3.72561        1.63020       -0.15460
H          2.88903        0.86101       -1.50742
H          3.45825       -0.41536        1.22559
H          4.24755       -0.82771       -0.30105
H          2.43140       -2.47059        0.28685
H          2.09781       -1.64364       -1.23732
H          0.88548       -0.94778        1.49833
H          0.04335       -1.72914        0.15339
