18
mol267_conf-5
Br        -2.14862       -0.50521        0.26952
C         -1.41490        1.27919        0.00053
C         -0.25779        1.30900       -0.99127
C          0.98329        0.59039       -0.51893
C          1.27601       -0.70693       -0.95072
C          2.40651       -1.37557       -0.48348
C          3.26155       -0.75532        0.42566
C          2.98041        0.53847        0.86366
C          1.85027        1.20349        0.39313
H         -2.25215        1.89623       -0.34858
H         -1.10276        1.62925        0.99307
H         -0.59437        0.90071       -1.95632
H         -0.02106        2.37293       -1.16395
H          0.60550       -1.20095       -1.65824
H          2.61937       -2.38875       -0.83159
H          4.14785       -1.27835        0.79141
H          3.64726        1.03416        1.57274
H          1.63982        2.22078        0.73694
