16
mol234_conf-6
Br         1.65088       -0.32911       -0.08591
C          0.60665        1.29393        0.17334
C         -0.89222        1.06028        0.24283
C         -1.37740        0.02931        1.28824
C         -1.89248       -1.12830        0.42803
C         -2.31239       -0.40156       -0.84484
O         -1.35978        0.62311       -1.01215
H          0.84373        1.94443       -0.67719
H          0.97249        1.75518        1.09949
H         -1.32537        2.05613        0.46953
H         -0.57547       -0.27543        1.97552
H         -2.19067        0.46018        1.89089
H         -2.71471       -1.68528        0.89848
H         -1.07661       -1.83134        0.20545
H         -3.33129        0.02317       -0.74049
H         -2.29766       -1.03493       -1.74308
