12
mol295_conf-2
Br         1.55459       -0.29774       -0.11476
C          0.18938        0.58911        0.95765
C         -0.78812        1.39037        0.11601
C         -1.63911        0.55297       -0.84693
C         -2.46159       -0.43878       -0.15096
N         -3.09066       -1.21237        0.43316
H          0.72963        1.23814        1.65668
H         -0.31555       -0.20337        1.52639
H         -1.45085        1.93370        0.81000
H         -0.24525        2.14834       -0.46843
H         -2.30448        1.20596       -1.43094
H         -0.99275        0.02247       -1.56386
