12
mol2074_clust-4
O         -1.86181       -1.34889       -0.14735
C         -2.15317       -0.06020        0.30927
C         -1.34501        1.04765       -0.37249
C          0.04875        1.29542        0.17463
Br         1.26832       -0.22846       -0.00609
H         -0.92976       -1.52725        0.01940
H         -2.03504        0.02920        1.41004
H         -3.22006        0.10607        0.09692
H         -1.30421        0.84057       -1.45370
H         -1.88638        2.00257       -0.25102
H          0.54764        2.12035       -0.34799
H          0.02777        1.51849        1.24978
