14
mol248_conf-3
Br         1.63165       -0.33299       -0.06654
C          0.59254        1.28656        0.15985
C         -0.90443        1.03482        0.15699
O         -1.31249        0.17787        1.18812
C         -1.89504       -0.97513        0.61793
C         -2.29753       -0.48935       -0.77036
O         -1.30708        0.47082       -1.05305
H          0.85889        1.96283       -0.66188
H          0.89054        1.73094        1.11692
H         -1.39816        2.01902        0.31425
H         -1.15978       -1.79601        0.56182
H         -2.74744       -1.29194        1.23538
H         -2.26436       -1.27070       -1.54103
H         -3.30420       -0.03058       -0.76360
