16
mol234_conf-1
Br         2.06677        0.12580       -0.00130
C          0.43921       -0.90048        0.27408
C         -0.75047       -0.27188       -0.43491
C         -1.18679        1.09709        0.10189
C         -2.70499        1.03153       -0.05117
C         -2.97087       -0.43686        0.26278
O         -1.85637       -1.14063       -0.25021
H          0.26602       -0.95273        1.35703
H          0.62853       -1.90945       -0.11053
H         -0.52488       -0.20721       -1.51585
H         -0.91095        1.19186        1.16544
H         -0.71797        1.93001       -0.43776
H         -2.99876        1.26013       -1.08773
H         -3.24267        1.72037        0.61504
H         -3.88375       -0.83020       -0.20913
H         -3.05804       -0.59696        1.35471
