16
mol234_conf-7
Br        -2.04664        0.08681       -0.01417
C         -0.33350       -0.71830       -0.45632
C          0.75471       -0.35289        0.55015
C          1.23327        1.10350        0.46469
C          2.41025        1.00246       -0.50580
C          2.98869       -0.35701       -0.12918
O          1.88072       -1.15566        0.23953
H         -0.07226       -0.38307       -1.46879
H         -0.48251       -1.80428       -0.46578
H          0.39705       -0.60524        1.56261
H          0.43869        1.78845        0.13847
H          1.58033        1.44163        1.45277
H          3.13416        1.82224       -0.40115
H          2.05826        0.99715       -1.54964
H          3.68888       -0.26412        0.72301
H          3.52370       -0.85242       -0.95313
