19
mol238_conf-6
Br        -1.79452       -0.40192       -0.00000
C         -0.87982        1.32904        0.00001
C          0.64607        1.33690        0.00001
C          1.31378        0.76296       -1.26453
C          1.62457       -0.73032       -1.16541
O          2.35177       -1.02524       -0.00001
C          1.62457       -0.73033        1.16540
C          1.31377        0.76294        1.26455
H         -1.26265        1.84347       -0.89090
H         -1.26265        1.84346        0.89092
H          0.85140        2.42308        0.00002
H          0.69512        0.96071       -2.15507
H          2.26910        1.29174       -1.41405
H          2.24831       -1.04104       -2.01596
H          0.69271       -1.32534       -1.19756
H          0.69271       -1.32536        1.19753
H          2.24830       -1.04107        2.01595
H          2.26910        1.29172        1.41407
H          0.69511        0.96067        2.15508
