16
mol234_conf-8
Br         1.65086       -0.32913       -0.08586
C          0.60667        1.29396        0.17322
C         -0.89218        1.06025        0.24269
C         -1.37746        0.02947        1.28824
C         -1.89261       -1.12809        0.42812
C         -2.31251       -0.40147       -0.84478
O         -1.35945        0.62271       -1.01225
H          0.84372        1.94444       -0.67734
H          0.97251        1.75517        1.09940
H         -1.32541        2.05614        0.46916
H         -0.57548       -0.27540        1.97544
H         -2.19056        0.46059        1.89093
H         -2.71466       -1.68537        0.89856
H         -1.07666       -1.83108        0.20548
H         -3.33123        0.02369       -0.74046
H         -2.29808       -1.03504       -1.74288
