14
mol248_conf-2
Br        -2.05044        0.12654       -0.02029
C         -0.42333       -0.86014        0.33121
C          0.77414       -0.25999       -0.37526
O          1.87556       -1.12414       -0.20493
C          3.00328       -0.35234        0.15510
C          2.51233        1.08602       -0.02692
O          1.12971        0.95898        0.19423
H         -0.57822       -1.88726       -0.01783
H         -0.24889       -0.85335        1.41383
H          0.56783       -0.13928       -1.46078
H          3.28334       -0.55913        1.20193
H          3.85611       -0.60166       -0.49462
H          2.71735        1.45453       -1.05013
H          2.92736        1.79731        0.69840
