21
mol229_conf-3
Br        -2.14586        0.00001       -0.35635
C         -0.98212       -0.00005        1.21664
C          0.50726       -0.00003        0.89992
C          0.97342       -1.26389        0.16887
C          2.48546       -1.26147       -0.05826
C          2.93826        0.00003       -0.79394
C          2.48543        1.26149       -0.05821
C          0.97340        1.26388        0.16892
H         -1.26811        0.89299        1.78722
H         -1.26811       -0.89313        1.78716
H          0.99082       -0.00004        1.89757
H          0.67198       -2.15861        0.73835
H          0.45575       -1.32257       -0.80414
H          2.78267       -2.16136       -0.61911
H          3.00152       -1.31711        0.91719
H          2.50725        0.00004       -1.81093
H          4.03273        0.00004       -0.91734
H          2.78263        2.16141       -0.61903
H          3.00150        1.31710        0.91724
H          0.45572        1.32258       -0.80408
H          0.67194        2.15857        0.73843
