12
mol2074_clust-3
O          2.48892       -0.70260       -0.58531
C          1.96371       -0.23072        0.63029
C          1.19965        1.05141        0.35179
C          0.06111        0.88899       -0.63846
Br        -1.39536       -0.21579        0.05299
H          2.79299       -1.60476       -0.46392
H          2.76423       -0.01820        1.36523
H          1.27921       -0.96757        1.09196
H          1.89950        1.78695       -0.08121
H          0.83017        1.47402        1.29912
H          0.40913        0.39276       -1.55192
H         -0.39587        1.85227       -0.89309
