23
mol3004_conf-1
C         -3.15148       -1.37226       -1.14392
Si        -2.30701       -0.12683       -0.01346
C         -3.20303        1.52898       -0.10786
C         -2.33210       -0.75496        1.76226
C         -0.51487        0.08332       -0.58259
C          0.31196        1.08498        0.22386
C          1.75269        1.24492       -0.23477
Br         2.81741       -0.37308        0.01493
H         -4.20018       -1.53169       -0.84656
H         -3.14788       -1.02672       -2.18998
H         -2.64065       -2.34770       -1.11043
H         -2.74632        2.27359        0.56353
H         -3.17870        1.93724       -1.13102
H         -4.25974        1.42305        0.18524
H         -3.36452       -0.92831        2.10545
H         -1.78292       -1.70568        1.85310
H         -1.86925       -0.03251        2.45311
H         -0.52008        0.37658       -1.64843
H         -0.03043       -0.90851       -0.54563
H         -0.14494        2.08895        0.15704
H          0.30746        0.81900        1.29410
H          1.81365        1.47882       -1.30606
H          2.27420        2.02733        0.33047
