21
mol3002_conf-12
C         -3.44383       -1.54956        0.06029
O         -2.20931       -1.15573        0.64534
C         -1.13348       -1.24065       -0.12710
O         -1.13690       -1.66231       -1.25333
C          0.10852       -0.73392        0.59242
C         -0.07800        0.68125        1.14070
Br        -0.41906        1.97764       -0.26645
N          1.22755       -0.87315       -0.29439
C          2.50878       -0.79154        0.15945
C          3.58246       -0.91966       -0.89827
O          2.76033       -0.59680        1.33434
H         -3.40438       -2.60089       -0.25727
H         -4.20544       -1.41364        0.83515
H         -3.67136       -0.92236       -0.81295
H          0.26379       -1.37092        1.48325
H         -0.93056        0.71969        1.82769
H          0.83892        0.98950        1.65497
H          1.01280       -1.06425       -1.26629
H          3.87975        0.08929       -1.22170
H          4.45976       -1.40349       -0.45227
H          3.25127       -1.48514       -1.78007
