35
mol3000_conf-2
C          4.58735       -1.72608        0.00118
C          4.02823       -0.38743       -0.47172
C          4.95555        0.75605       -0.06272
O          2.76875       -0.29095        0.23961
C          1.95793        0.77051        0.10183
N          0.84156        0.64845        0.87717
C         -0.19942        1.66276        0.76637
C         -1.57984        1.03889        0.99606
C         -1.63929       -0.35829        0.37711
C         -0.64372       -1.29624        1.09931
C          0.52790       -0.50430        1.69823
C         -3.02501       -0.98396        0.39609
Br        -4.31494       -0.05144       -0.72877
O          2.17116        1.72414       -0.61654
C          3.78010       -0.41223       -1.97934
H          4.73051       -1.72116        1.09161
H          5.55732       -1.92364       -0.47741
H          3.89832       -2.54404       -0.25531
H          5.07604        0.77469        1.03093
H          4.55558        1.72222       -0.39299
H          5.94731        0.60688       -0.51478
H         -0.02259        2.48733        1.47964
H         -0.13547        2.09554       -0.24142
H         -1.80891        0.96879        2.07374
H         -2.34654        1.69302        0.55656
H         -1.32417       -0.26782       -0.67633
H         -1.15207       -1.84621        1.90974
H         -0.26997       -2.05012        0.38950
H          1.42075       -1.12808        1.79809
H          0.26663       -0.14855        2.70928
H         -2.99741       -2.01600        0.02315
H         -3.45044       -0.98725        1.40943
H          4.72619       -0.60393       -2.50694
H          3.07541       -1.21794       -2.23504
H          3.36764        0.54374       -2.32358
