23
mol3004_conf-8
C          1.39817       -0.86369        1.69478
Si         1.77232       -0.15841       -0.00898
C          3.63110        0.13806       -0.15212
C          1.27974       -1.34993       -1.38008
C          0.96710        1.55522       -0.21402
C         -0.43347        1.88265        0.32003
C         -1.61800        1.30586       -0.44217
Br        -2.09737       -0.52513        0.04783
H          1.70889       -0.16194        2.48576
H          0.32403       -1.06669        1.81998
H          1.94357       -1.80785        1.85281
H          3.99694        0.79630        0.65221
H          4.18736       -0.81085       -0.08783
H          3.88708        0.60907       -1.11505
H          0.20014       -1.55822       -1.38192
H          1.55310       -0.93710       -2.36475
H          1.81112       -2.30823       -1.26278
H          1.67375        2.24164        0.28595
H          1.02407        1.82678       -1.28450
H         -0.52133        1.61577        1.38593
H         -0.56997        2.97806        0.27885
H         -2.53007        1.88171       -0.24546
H         -1.44097        1.28971       -1.52602
