15
mol309_clust-4
Br         1.72682        0.27662       -0.22143
C          0.42829       -0.35589        1.08894
C         -0.40302       -1.52268        0.57382
C         -1.29228       -1.25364       -0.64178
C         -2.55771       -0.42564       -0.37207
C         -2.32184        0.97155        0.00024
N         -2.13839        2.07220        0.30142
H         -0.17593        0.51967        1.35335
H          1.01453       -0.65750        1.96524
H          0.27743       -2.35418        0.33236
H         -1.02710       -1.87216        1.41617
H         -0.69977       -0.77792       -1.43890
H         -1.63068       -2.22109       -1.04226
H         -3.19347       -0.41757       -1.27099
H         -3.15548       -0.88846        0.43015
