26
mol3001_conf-7
C          4.83364       -2.47995       -0.18527
C          3.75256       -1.43952       -0.06549
C          3.80217       -0.26930       -0.83740
C          2.82682        0.71322       -0.71796
C          1.77889        0.52424        0.18372
S          0.49569        1.75564        0.29707
O         -0.19924        1.53083        1.55332
O          1.06684        3.03722       -0.06863
N         -0.57954        1.39274       -0.90848
C         -1.39950        0.19580       -0.85837
C         -2.69381        0.45347       -0.09808
Br        -3.78650       -1.15113       -0.04528
C          1.71052       -0.62157        0.97251
C          2.69615       -1.59707        0.83820
H          5.14982       -2.61016       -1.23025
H          5.72293       -2.18015        0.39209
H          4.50094       -3.45408        0.19857
H          4.62639       -0.12348       -1.54028
H          2.88005        1.63252       -1.30453
H         -0.31206        1.76976       -1.81048
H         -1.62176       -0.10889       -1.89102
H         -0.85308       -0.64529       -0.39615
H         -2.48167        0.74348        0.93725
H         -3.28809        1.23738       -0.58308
H          0.89997       -0.73388        1.69474
H          2.64432       -2.49735        1.45537
