26
mol3001_conf-4
C         -3.12084       -3.53234       -0.05673
C         -2.57888       -2.12962        0.00572
C         -1.92670       -1.66051        1.15215
C         -1.44763       -0.35470        1.22552
C         -1.61535        0.49108        0.13231
S         -0.91038        2.12909        0.16795
O         -1.74517        2.99604       -0.64193
O         -0.57993        2.41534        1.55180
N          0.51837        2.02005       -0.66030
C          1.66408        1.29126       -0.16278
C          1.71441       -0.14759       -0.67163
Br         3.27270       -1.07581        0.01844
C         -2.27580        0.05688       -1.01648
C         -2.74875       -1.24910       -1.07264
H         -4.18189       -3.54832        0.24025
H         -3.05817       -3.94230       -1.07471
H         -2.57715       -4.20502        0.62089
H         -1.79205       -2.32815        2.00671
H         -0.94650        0.01496        2.12180
H          0.42373        2.19063       -1.65572
H          2.58293        1.82412       -0.45219
H          1.62365        1.31298        0.93609
H          0.83568       -0.72271       -0.35478
H          1.78624       -0.18232       -1.76688
H         -2.42395        0.74410       -1.85197
H         -3.26608       -1.59374       -1.97162
