21
mol3002_conf-3
C         -1.00974        3.07540       -0.99641
O         -0.97437        1.71419       -0.59086
C         -0.20864        1.43602        0.45882
O          0.44605        2.24912        1.05428
C         -0.26840       -0.04045        0.86153
C          1.12140       -0.55233        1.20418
Br         2.25267       -0.70466       -0.37965
N         -0.97020       -0.88390       -0.05994
C         -2.29095       -1.19662        0.12974
C         -2.94472       -1.91037       -1.03228
O         -2.88440       -0.90714        1.14767
H         -0.00487        3.42108       -1.27730
H         -1.68394        3.12064       -1.85831
H         -1.38684        3.71158       -0.18337
H         -0.85993       -0.05459        1.79406
H          1.62791        0.14419        1.88095
H          1.06967       -1.55353        1.64581
H         -0.54758       -1.03754       -0.96737
H         -2.25844       -2.60907       -1.53149
H         -3.82668       -2.44925       -0.66791
H         -3.27337       -1.16227       -1.77008
