24
mol3005_conf-2
F              -3.41010      -2.38090      -0.20540
C              -2.81170      -1.20040      -0.04330
C              -2.80480      -0.29260      -1.09650
C              -2.17570       0.93630      -0.91950
C              -1.55250       1.26950       0.28990
C              -0.80190       2.57110       0.43320
C               0.54040       2.61430      -0.31420
C               1.57050       1.56200       0.12350
C               1.41050       0.22160      -0.57870
Br              2.76360      -1.05810      -0.00370
C              -1.59160       0.33610       1.33080
C              -2.21470      -0.90110       1.17400
H              -3.29120      -0.55810      -2.03650
H              -2.16420       1.65150      -1.74670
H              -1.43130       3.39920       0.06850
H              -0.61960       2.76850       1.50190
H               0.36220       2.52930      -1.40060
H               0.97610       3.61440      -0.16130
H               2.58480       1.93740      -0.08310
H               1.51460       1.41330       1.21490
H               0.44580      -0.25480      -0.37400
H               1.53010       0.32180      -1.66560
H              -1.11350       0.57300       2.28470
H              -2.24190      -1.63470       1.98110
