21
mol3002_conf-2
C         -2.08623        2.80953       -0.50721
O         -1.22423        1.70992       -0.76924
C         -0.28771        1.46310        0.13054
O         -0.07652        2.14395        1.10290
C          0.50264        0.20089       -0.18007
C         -0.06137       -1.01803        0.56589
Br        -1.88010       -1.47442        0.07006
N          1.86216        0.42891        0.24637
C          2.89961       -0.30341       -0.25351
C          4.26889        0.04630        0.28794
O          2.72817       -1.17469       -1.08294
H         -2.63276        2.65261        0.43330
H         -1.51205        3.74367       -0.43387
H         -2.78488        2.85491       -1.34887
H          0.48483       -0.00136       -1.26020
H          0.56177       -1.88692        0.32465
H         -0.05647       -0.83705        1.64844
H          1.99625        1.11563        0.98004
H          4.70990       -0.85633        0.73290
H          4.90998        0.34138       -0.55422
H          4.25748        0.85212        1.03390
