21
mol3002_conf-5
C         -3.32842       -1.93528        0.47965
O         -1.96746       -1.59488        0.25728
C         -1.74680       -0.52248       -0.49950
O         -2.60719        0.11184       -1.04119
C         -0.24574       -0.23414       -0.67216
C          0.61893       -0.93900        0.37184
Br         2.51090       -0.66993        0.01133
N         -0.03787        1.18945       -0.72481
C         -0.46545        1.98916        0.29491
C         -0.25991        3.47219        0.09379
O         -1.00514        1.52001        1.27899
H         -3.83856       -2.14245       -0.47169
H         -3.32088       -2.82974        1.11169
H         -3.84840       -1.11206        0.98909
H          0.00938       -0.63801       -1.66536
H          0.41703       -0.54117        1.37204
H          0.44442       -2.01889        0.36082
H          0.40915        1.59201       -1.53483
H          0.65980        3.69800       -0.46399
H         -1.11694        3.87509       -0.46708
H         -0.22873        3.96010        1.07468
