35
mol3000_conf-10
C         -4.94808        0.73911       -0.14971
C         -4.01390       -0.43413       -0.44219
C         -4.57225       -1.72443        0.15091
O         -2.76031       -0.26607        0.26599
C         -1.95170        0.78088        0.03513
N         -0.84269        0.73818        0.82947
C         -0.52952       -0.33236        1.75525
C          0.63788       -1.18089        1.22987
C          1.63136       -0.31786        0.41710
C          1.58043        1.13103        0.90409
C          0.20003        1.73636        0.62690
C          3.01532       -0.94393        0.48514
Br         4.30011       -0.12464       -0.73029
O         -2.16099        1.66062       -0.77304
C         -3.75485       -0.60049       -1.93900
H         -5.93581        0.54400       -0.59303
H         -4.54901        1.67150       -0.56675
H         -5.07711        0.86031        0.93638
H         -3.87855       -2.56011       -0.02233
H         -5.53795       -1.97010       -0.31382
H         -4.72351       -1.61726        1.23497
H         -0.26290        0.11825        2.72621
H         -1.42290       -0.94156        1.91923
H          1.14918       -1.65228        2.08662
H          0.25938       -1.99807        0.59672
H          1.30936       -0.32457       -0.63812
H          1.81645        1.15983        1.98218
H          2.34650        1.73851        0.40114
H          0.13117        2.08033       -0.41416
H          0.02819        2.61970        1.26734
H          3.44781       -0.85425        1.49149
H          2.98224       -2.00611        0.21010
H         -3.34584        0.32093       -2.37042
H         -3.04359       -1.42221       -2.11229
H         -4.69605       -0.84783       -2.45200
