22
mol372_clust-2
Br         2.47668       -0.84577       -0.03084
C          1.64822        0.57426        1.02529
C          1.43576        1.84722        0.22489
C          0.33877        1.80079       -0.83076
O         -0.94419        1.78276       -0.24298
C         -1.70115        0.66271       -0.15883
C         -3.00991        0.85685        0.30652
C         -3.87204       -0.22312        0.44486
C         -3.44983       -1.51485        0.12034
C         -2.15119       -1.70369       -0.34090
C         -1.27120       -0.62807       -0.48326
H          2.33008        0.74315        1.86691
H          0.70605        0.16152        1.40915
H          1.17464        2.64597        0.93953
H          2.38235        2.14453       -0.25372
H          0.38373        2.72426       -1.42718
H          0.48442        0.95900       -1.52638
H         -3.32447        1.87261        0.55214
H         -4.88815       -0.05391        0.80870
H         -4.12798       -2.36313        0.22890
H         -1.80001       -2.70666       -0.59401
H         -0.25542       -0.82003       -0.82971
