21
mol3002_conf-4
C         -3.83634       -0.94043       -0.28910
O         -2.54231       -0.51277       -0.68553
C         -1.52289       -1.07691       -0.04843
O         -1.62577       -1.98850        0.72677
C         -0.17713       -0.49153       -0.49301
C          0.89370       -0.90019        0.51626
Br         2.66194       -0.35606       -0.07884
N         -0.24943        0.92909       -0.72172
C         -0.73617        1.76794        0.23859
C         -0.62554        3.24370       -0.06891
O         -1.20684        1.33696        1.27383
H         -4.54604       -0.39457       -0.92013
H         -3.95279       -2.02421       -0.43127
H         -4.00670       -0.69974        0.76978
H          0.04714       -0.96633       -1.46229
H          0.71042       -0.42072        1.48452
H          0.91021       -1.98670        0.64658
H          0.20887        1.30984       -1.53704
H         -1.34871        3.78732        0.54948
H          0.38623        3.59139        0.19025
H         -0.80487        3.46130       -1.13130
