24
mol3005_conf-1
F              -3.69330      -1.78270       0.28080
C              -2.85110      -0.77200       0.05860
C              -2.84410       0.31060       0.92760
C              -1.95530       1.35820       0.68780
C              -1.07790       1.33620      -0.40100
C              -0.07900       2.44830      -0.62430
C               1.39530       2.02750      -0.54350
C               1.86330       1.48140       0.80830
C               1.45000       0.06120       1.17030
Br              2.13580      -1.27590      -0.07780
C              -1.12400       0.23240      -1.26290
C              -2.00120      -0.82430      -1.04030
H              -3.52810       0.32260       1.77760
H              -1.94040       2.20960       1.37340
H              -0.25410       2.89530      -1.61710
H              -0.26570       3.25090       0.10790
H               1.62100       1.28770      -1.32910
H               2.00730       2.91150      -0.78300
H               2.96230       1.54060       0.85520
H               1.48740       2.13390       1.61790
H               1.85530      -0.22250       2.14930
H               0.36390      -0.07990       1.18180
H              -0.44710       0.18560      -2.11950
H              -2.03220      -1.69050      -1.70260
