24
mol3005_conf-6
F              -6.13970      -0.63530      -0.00060
C              -4.85210      -0.28410      -0.00030
C              -4.51510       1.06510      -0.00050
C              -3.17040       1.41900      -0.00010
C              -2.15380       0.45290       0.00040
C              -0.70910       0.90850       0.00080
C               0.34920      -0.18900       0.00040
C               1.76880       0.37830       0.00030
C               2.81510      -0.72130      -0.00010
Br              4.62970      -0.01590      -0.00020
C              -2.53260      -0.89280       0.00060
C              -3.87670      -1.26940       0.00020
H              -5.30550       1.81730      -0.00090
H              -2.90110       2.47900      -0.00030
H              -0.54880       1.55860      -0.87690
H              -0.54900       1.55770       0.87930
H               0.21450      -0.83680       0.88400
H               0.21410      -0.83640      -0.88350
H               1.91490       1.02170      -0.88280
H               1.91520       1.02130       0.88360
H               2.73690      -1.35740      -0.89160
H               2.73720      -1.35780       0.89110
H              -1.77520      -1.67850       0.00090
H              -4.17390      -2.31930       0.00030
