23
mol3004_conf-10
C          2.33208       -0.75497        1.76226
Si         2.30701       -0.12684       -0.01346
C          3.20303        1.52898       -0.10784
C          3.15148       -1.37226       -1.14392
C          0.51487        0.08333       -0.58260
C         -0.31196        1.08499        0.22385
C         -1.75269        1.24493       -0.23478
Br        -2.81741       -0.37308        0.01493
H          1.86930       -0.03247        2.45312
H          1.78280       -1.70564        1.85310
H          3.36449       -0.92841        2.10544
H          2.74631        2.27359        0.56354
H          4.25974        1.42304        0.18528
H          3.17873        1.93724       -1.13100
H          4.20019       -1.53166       -0.84659
H          2.64067       -2.34771       -1.11041
H          3.14784       -1.02673       -2.18999
H          0.52009        0.37660       -1.64843
H          0.03043       -0.90850       -0.54565
H         -0.30745        0.81900        1.29409
H          0.14494        2.08896        0.15704
H         -2.27420        2.02734        0.33047
H         -1.81365        1.47882       -1.30607
