23
mol3004_conf-4
C          3.35346       -0.74231       -1.06153
Si         1.91663       -0.16330        0.00944
C          1.17913       -1.66057        0.88306
C          2.53877        1.08025        1.28426
C          0.65207        0.68066       -1.12790
C         -0.35468        1.64519       -0.49278
C         -1.25401        1.06260        0.58391
Br        -2.38590       -0.39313       -0.05937
H          3.84472        0.10519       -1.56547
H          4.11393       -1.26230       -0.45746
H          3.00837       -1.44207       -1.83947
H          0.35605       -1.39625        1.56428
H          0.77676       -2.37783        0.15036
H          1.95121       -2.17881        1.47452
H          3.32125        0.63473        1.91895
H          2.96984        1.96894        0.79562
H          1.72975        1.42301        1.94918
H          0.11330       -0.10436       -1.68693
H          1.23070        1.23728       -1.88553
H          0.18536        2.48195       -0.01380
H         -0.98822        2.09987       -1.27220
H         -0.68272        0.64360        1.42260
H         -1.94515        1.81796        0.97723
