35
mol3000_conf-4
C          4.75546       -0.36065        1.40146
C          4.26362       -0.60483       -0.02445
C          4.92505        0.33958       -1.02727
O          2.82191       -0.46904       -0.08768
C          2.20370        0.68216        0.21772
N          0.85088        0.54146        0.11123
C          0.00731        1.70968        0.30675
C         -1.09880        1.73266       -0.74090
C         -2.00742        0.47885       -0.66206
C         -1.26327       -0.67844        0.02526
C          0.21957       -0.70183       -0.31803
C         -3.30620        0.83613        0.04779
Br        -4.56993       -0.64484        0.14873
O          2.75757        1.71221        0.54172
C          4.48922       -2.05882       -0.42819
H          4.22762       -1.02291        2.10416
H          4.58829        0.68112        1.70052
H          5.83129       -0.58174        1.46399
H          6.00787        0.14766       -1.05738
H          4.75663        1.38665       -0.74832
H          4.51798        0.16860       -2.03526
H         -0.42513        1.71474        1.32450
H          0.64575        2.59820        0.23118
H         -1.69128        2.65444       -0.62864
H         -0.62988        1.78625       -1.73550
H         -2.26181        0.16996       -1.68909
H         -1.37095       -0.59102        1.11993
H         -1.71691       -1.64043       -0.25096
H          0.35671       -0.85444       -1.40507
H          0.70983       -1.54784        0.18081
H         -3.12188        1.15042        1.08521
H         -3.83717        1.64101       -0.47573
H          5.56373       -2.29199       -0.42602
H          3.98278       -2.73733        0.27367
H          4.09256       -2.24434       -1.43692
