26
mol3001_conf-2
C          4.48077       -0.53767       -0.04953
C          3.11025        0.08488       -0.04895
C          2.48775        0.41955        1.16423
C          1.22521        0.99406        1.18847
C          0.56857        1.23562       -0.01837
S         -1.07790        1.90171        0.01212
O         -1.17513        2.86720        1.09322
O         -1.43266        2.23955       -1.35790
N         -2.01239        0.62220        0.51444
C         -2.58211       -0.32481       -0.41524
C         -2.39626       -1.77199        0.01030
Br        -0.53012       -2.30613        0.07784
C          1.16387        0.92932       -1.23554
C          2.43334        0.35326       -1.24154
H          4.50037       -1.44705        0.57011
H          4.80145       -0.80948       -1.06431
H          5.22646        0.15738        0.36688
H          3.00657        0.22386        2.10618
H          0.74499        1.25518        2.13306
H         -2.52577        0.85618        1.35792
H         -3.66527       -0.14801       -0.54560
H         -2.12663       -0.15489       -1.40163
H         -2.80511       -1.95213        1.01317
H         -2.89337       -2.44539       -0.69949
H          0.63370        1.14204       -2.16494
H          2.90414        0.10672       -2.19626
