21
mol3002_conf-9
C         -2.08550        2.80988       -0.50738
O         -1.22386        1.70998       -0.76919
C         -0.28730        1.46313        0.13050
O         -0.07579        2.14413        1.10268
C          0.50271        0.20062       -0.17988
C         -0.06174       -1.01808        0.56609
Br        -1.88053       -1.47400        0.06996
N          1.86223        0.42828        0.24674
C          2.89949       -0.30467       -0.25269
C          4.26915        0.04679        0.28673
O          2.72779       -1.17636       -1.08160
H         -2.78354        2.85593       -1.34950
H         -2.63281        2.65286        0.43267
H         -1.51095        3.74373       -0.43324
H          0.48493       -0.00179       -1.25999
H          0.56122       -1.88713        0.32497
H         -0.05696       -0.83712        1.64864
H          1.99645        1.11519        0.98017
H          4.25551        0.83862        1.04749
H          4.72088       -0.86007        0.71158
H          4.90225        0.36374       -0.55368
