24
mol3005_conf-4
F              -5.24740      -1.17190      -0.42570
C              -4.12080      -0.50310      -0.17170
C              -3.60770       0.35460      -1.13770
C              -2.43220       1.04830      -0.86330
C              -1.76360       0.89960       0.35860
C              -0.46490       1.62750       0.61550
C               0.73360       1.02430      -0.12870
C               1.04050      -0.41260       0.28000
C               2.20720      -1.04530      -0.45510
Br              3.92080      -0.19140      -0.06370
C              -2.31210       0.02850       1.30580
C              -3.48810      -0.67610       1.05170
H              -4.13420       0.47130      -2.08620
H              -2.02730       1.72710      -1.61910
H              -0.57170       2.68250       0.31690
H              -0.25460       1.63170       1.69730
H               0.54440       1.06000      -1.21620
H               1.62020       1.65280       0.05210
H               1.21880      -0.46610       1.36740
H               0.16000      -1.04840       0.07950
H               2.08490      -0.98160      -1.54450
H               2.33630      -2.09780      -0.17570
H              -1.81050      -0.10370       2.26820
H              -3.91990      -1.35450       1.78910
