35
mol3000_conf-9
C          3.70185       -2.06800       -1.05405
C          3.56854       -0.99478        0.02227
C          3.26226       -1.62992        1.37789
O          2.43185       -0.21780       -0.43216
C          1.98257        0.84614        0.25020
N          0.91255        1.41966       -0.37608
C          0.25357        0.86605       -1.54435
C         -1.04906        0.15668       -1.14578
C         -1.69659        0.83632        0.07905
C         -1.32031        2.32376        0.10630
C          0.19408        2.48723        0.30327
C         -3.20627        0.67233        0.12905
Br        -3.77100       -1.19219        0.21166
O          2.45207        1.26011        1.28931
C          4.82115       -0.12114        0.06830
H          2.78241       -2.66825       -1.11582
H          4.54172       -2.73818       -0.82085
H          3.88373       -1.60871       -2.03664
H          3.15596       -0.86311        2.15456
H          4.07805       -2.31220        1.65923
H          2.33087       -2.21343        1.32215
H          0.04099        1.69713       -2.23757
H          0.93845        0.18649       -2.05943
H         -1.74614        0.16868       -2.00064
H         -0.85147       -0.90049       -0.91706
H         -1.27929        0.37856        0.99271
H         -1.64848        2.79977       -0.83374
H         -1.84416        2.85009        0.91887
H          0.45568        2.43298        1.36844
H          0.52421        3.47656       -0.06033
H         -3.63233        1.15055        1.02015
H         -3.68738        1.09578       -0.76382
H          4.98699        0.35691       -0.90886
H          4.72744        0.65808        0.83420
H          5.69777       -0.74458        0.29866
