35
mol3000_conf-6
C         -4.41289       -0.33563        1.73862
C         -4.23320        0.36412        0.39211
C         -5.03757       -0.31346       -0.71644
O         -2.82857        0.40933        0.03705
C         -2.11367       -0.70818       -0.16995
N         -0.83097       -0.40339       -0.51990
C          0.12407       -1.49129       -0.68521
C          1.49094       -1.06635       -0.16730
C          2.05649        0.13489       -0.95014
C          0.90166        1.00424       -1.50001
C         -0.33991        0.96453       -0.61711
C          2.99021        0.99425       -0.10853
Br         4.52562        0.01339        0.58296
O         -2.53486       -1.84072       -0.06137
C         -4.60722        1.83940        0.50082
H         -5.46362       -0.26250        2.05620
H         -3.78827        0.14843        2.50444
H         -4.13463       -1.39407        1.66951
H         -6.11204       -0.23483       -0.49383
H         -4.76928       -1.37315       -0.80423
H         -4.84976        0.18337       -1.68026
H         -0.25762       -2.35923       -0.13354
H          0.19263       -1.79505       -1.74643
H          1.38966       -0.80143        0.89911
H          2.18803       -1.91484       -0.20913
H          2.63581       -0.24204       -1.80863
H          1.22428        2.04974       -1.62453
H          0.62293        0.64780       -2.50364
H         -1.12715        1.59980       -1.04151
H         -0.11388        1.37348        0.38612
H          3.40867        1.82184       -0.69504
H          2.47379        1.40834        0.76936
H         -3.99436        2.33654        1.26669
H         -4.44494        2.35069       -0.45930
H         -5.66615        1.94412        0.77764
