24
mol3005_conf-7
F               4.22690      -2.00970      -0.41580
C               3.37180      -1.02860      -0.12290
C               3.46230       0.17770      -0.80820
C               2.56590       1.19580      -0.49670
C               1.58320       1.02870       0.48790
C               0.59210       2.13200       0.77590
C              -0.42900       2.34240      -0.35390
C              -1.24160       1.10250      -0.73720
C              -2.11000       0.59340       0.39970
Br             -3.19680      -0.93170      -0.13220
C               1.52690      -0.19750       1.15770
C               2.41410      -1.23130       0.86070
H               4.23150       0.30490      -1.57150
H               2.63630       2.14660      -1.03230
H               0.07200       1.91740       1.72290
H               1.13200       3.07890       0.93740
H              -1.11160       3.16110      -0.06840
H               0.10290       2.69140      -1.25440
H              -1.88460       1.34490      -1.59750
H              -0.56520       0.29730      -1.06670
H              -2.81200       1.36110       0.75220
H              -1.51580       0.24510       1.25330
H               0.77510      -0.35430       1.93590
H               2.37160      -2.18890       1.38170
