35
mol3000_conf-1
C         -3.70178       -2.06799       -1.05409
C         -3.56849       -0.99479        0.02226
C         -4.82113       -0.12121        0.06834
O         -2.43183       -0.21776       -0.43218
C         -1.98256        0.84615        0.25023
N         -0.91256        1.41972       -0.37606
C         -0.19407        2.48725        0.30332
C          1.32031        2.32377        0.10632
C          1.69657        0.83632        0.07903
C          1.04902        0.15674       -1.14582
C         -0.25360        0.86616       -1.54436
C          3.20625        0.67231        0.12903
Br         3.77095       -1.19222        0.21166
O         -2.45204        1.26007        1.28937
C         -3.26215       -1.62996        1.37785
H         -4.54163       -2.73821       -0.82089
H         -2.78233       -2.66821       -1.11589
H         -3.88369       -1.60868       -2.03666
H         -4.72743        0.65799        0.83426
H         -5.69772       -0.74470        0.29870
H         -4.98701        0.35686       -0.90880
H         -0.52419        3.47660       -0.06023
H         -0.45566        2.43296        1.36849
H          1.64849        2.79980       -0.83371
H          1.84419        2.85007        0.91890
H          1.27926        0.37855        0.99268
H          1.74610        0.16875       -2.00068
H          0.85141       -0.90044       -0.91713
H         -0.93849        0.18664       -2.05948
H         -0.04100        1.69727       -2.23753
H          3.68736        1.09574       -0.76385
H          3.63232        1.15054        1.02011
H         -3.15587       -0.86318        2.15455
H         -4.07791       -2.31229        1.65918
H         -2.33074       -2.21343        1.32207
