22
mol372_clust-1
Br        -2.47667       -0.84568       -0.03088
C         -1.64780        0.57400        1.02541
C         -1.43547        1.84716        0.22529
C         -0.33876        1.80101       -0.83067
O          0.94438        1.78292       -0.24328
C          1.70113        0.66274       -0.15895
C          3.00987        0.85671        0.30654
C          3.87184       -0.22338        0.44498
C          3.44948       -1.51505        0.12042
C          2.15089       -1.70371       -0.34101
C          1.27107       -0.62797       -0.48349
H         -0.70557        0.16107        1.40890
H         -2.32943        0.74272        1.86726
H         -2.38218        2.14464       -0.25298
H         -1.17413        2.64571        0.94008
H         -0.48455        0.95939       -1.52646
H         -0.38392        2.72464       -1.42684
H          3.32454        1.87243        0.55219
H          4.88793       -0.05431        0.80893
H          4.12751       -2.36343        0.22907
H          1.79961       -2.70663       -0.59418
H          0.25532       -0.81980       -0.83013
