15
mol3003_conf-4
C         -2.97170       -1.35001        0.00886
C         -2.22432       -0.03552       -0.06658
O         -2.49218        0.82933       -0.87682
N         -1.20599        0.10917        0.83475
C         -0.31399        1.23961        0.76561
C          0.73251        1.13656       -0.33361
Br         1.90130       -0.40460       -0.08892
H         -3.98787       -1.19943       -0.37390
H         -3.01376       -1.75489        1.02980
H         -2.46770       -2.08575       -0.63665
H         -0.91786       -0.69203        1.38049
H          0.16832        1.37537        1.74453
H         -0.91770        2.13617        0.55525
H          0.25425        1.01782       -1.31337
H          1.38116        2.02108       -0.34832
