23
mol3004_conf-5
C          2.15425        1.68282       -0.94553
Si         2.29199        0.07784        0.03506
C          4.03423       -0.60319       -0.17835
C          1.95124        0.40852        1.85786
C          1.07230       -1.23143       -0.60476
C         -0.37533       -1.17674       -0.09426
C         -1.08663        0.10844       -0.48088
Br        -2.95303        0.11408        0.07683
H          2.91830        2.40331       -0.61185
H          2.31608        1.50069       -2.02014
H          1.17197        2.16638       -0.83255
H          4.17670       -1.52535        0.40716
H          4.24100       -0.84013       -1.23434
H          4.78894        0.12695        0.15456
H          2.02779       -0.51773        2.44967
H          2.67517        1.12968        2.26928
H          0.94283        0.82310        2.01607
H          1.49554       -2.21290       -0.32832
H          1.08441       -1.21121       -1.70980
H         -0.94828       -2.02980       -0.49188
H         -0.39407       -1.27787        1.00323
H         -0.63750        0.99054       -0.00710
H         -1.09124        0.26119       -1.56850
