15
mol309_clust-2
Br        -1.76589       -0.63235       -0.01959
C         -1.19348        1.17647        0.45010
C         -0.00840        1.69788       -0.34921
C          1.38064        1.20291        0.05830
C          1.68882       -0.25918       -0.29857
C          3.07563       -0.61635        0.00313
N          4.17369       -0.87850        0.25008
H         -0.98248        1.15664        1.52775
H         -2.08039        1.79846        0.28077
H         -0.18124        1.52543       -1.42426
H         -0.01634        2.79295       -0.21476
H          2.12943        1.84326       -0.43315
H          1.52146        1.34722        1.14231
H          1.51106       -0.44064       -1.37067
H          1.02968       -0.95199        0.24468
