22
mol372_clust-4
Br         4.06491       -0.11209       -0.00003
C          2.31754        0.73832       -0.00003
C          1.18947       -0.27696        0.00006
C         -0.16911        0.40544        0.00007
O         -1.14975       -0.59843        0.00014
C         -2.45735       -0.25319        0.00006
C         -3.37351       -1.31467       -0.00000
C         -4.73755       -1.05751       -0.00007
C         -5.21337        0.25705       -0.00009
C         -4.30182        1.30697       -0.00003
C         -2.92536        1.06514        0.00005
H          2.29224        1.37929       -0.89127
H          2.29229        1.37938        0.89116
H          1.26289       -0.92681       -0.88492
H          1.26295       -0.92674        0.88508
H         -0.27691        1.05233        0.89188
H         -0.27696        1.05227       -0.89176
H         -2.98432       -2.33407        0.00001
H         -5.44015       -1.89389       -0.00012
H         -6.28622        0.45686       -0.00015
H         -4.65775        2.33976       -0.00004
H         -2.23536        1.90891        0.00010
