23
mol3004_conf-6
C         -4.03423       -0.60318       -0.17836
Si        -2.29199        0.07784        0.03506
C         -2.15425        1.68283       -0.94551
C         -1.95124        0.40850        1.85787
C         -1.07230       -1.23143       -0.60476
C          0.37533       -1.17674       -0.09426
C          1.08663        0.10845       -0.48088
Br         2.95303        0.11408        0.07683
H         -4.17669       -1.52537        0.40712
H         -4.78894        0.12694        0.15459
H         -4.24101       -0.84008       -1.23436
H         -2.91830        2.40331       -0.61183
H         -1.17197        2.16639       -0.83252
H         -2.31608        1.50071       -2.02013
H         -0.94283        0.82307        2.01609
H         -2.67517        1.12965        2.26929
H         -2.02780       -0.51776        2.44966
H         -1.08441       -1.21120       -1.70981
H         -1.49554       -2.21290       -0.32834
H          0.39407       -1.27788        1.00322
H          0.94828       -2.02980       -0.49189
H          1.09124        0.26120       -1.56849
H          0.63750        0.99054       -0.00709
