21
mol3002_conf-7
C          3.17149       -1.68550       -0.95232
O          1.95843       -0.96588       -0.79504
C          1.32390       -1.14009        0.36151
O          1.62719       -1.95123        1.19139
C          0.07211       -0.26176        0.47264
C         -1.06268       -1.02334       -0.20025
Br        -2.77070       -0.09949       -0.07132
N          0.25051        1.03717       -0.11898
C          1.31242        1.81520        0.23849
C          1.38245        3.17386       -0.42148
O          2.16264        1.40824        1.00567
H          3.89789       -1.37285       -0.18895
H          3.00130       -2.76762       -0.85994
H          3.54584       -1.44196       -1.95257
H         -0.12304       -0.18720        1.55513
H         -0.86175       -1.16256       -1.27036
H         -1.19438       -1.99927        0.28041
H         -0.50333        1.42077       -0.67431
H          1.85586        3.87820        0.27296
H          2.01995        3.09825       -1.31522
H          0.39851        3.55689       -0.72595
