26
mol3001_conf-1
C         -4.48077       -0.53766       -0.04952
C         -3.11025        0.08489       -0.04895
C         -2.43333        0.35324       -1.24154
C         -1.16385        0.92929       -1.23554
C         -0.56857        1.23562       -0.01838
S          1.07791        1.90171        0.01211
O          1.43268        2.23952       -1.35791
O          1.17514        2.86720        1.09320
N          2.01239        0.62220        0.51445
C          2.58212       -0.32482       -0.41521
C          2.39625       -1.77200        0.01032
Br         0.53011       -2.30612        0.07784
C         -1.22521        0.99409        1.18846
C         -2.48775        0.41958        1.16423
H         -5.22645        0.15738        0.36693
H         -4.80146       -0.80943       -1.06430
H         -4.50036       -1.44706        0.57008
H         -2.90413        0.10668       -2.19625
H         -0.63367        1.14199       -2.16495
H          2.52576        0.85618        1.35794
H          2.12665       -0.15490       -1.40162
H          3.66528       -0.14803       -0.54556
H          2.89337       -2.44541       -0.69944
H          2.80509       -1.95213        1.01320
H         -0.74500        1.25523        2.13305
H         -3.00658        0.22392        2.10618
