21
mol3002_conf-10
C          0.86807        3.32470       -0.51250
O          0.22758        2.05748       -0.57368
C          0.24044        1.32888        0.55323
O          0.72418        1.70048        1.58289
C         -0.44993       -0.00877        0.32420
C          0.31058       -0.89999       -0.66227
Br         2.13354       -1.25143       -0.10112
N         -1.79119        0.22745       -0.16591
C         -2.80634       -0.65494        0.08960
C         -4.15476       -0.27931       -0.48642
O         -2.63520       -1.65465        0.75497
H          0.39307        3.96470        0.24448
H          1.93011        3.20517       -0.25668
H          0.76500        3.77008       -1.50784
H         -0.52069       -0.51577        1.29502
H         -0.19932       -1.86798       -0.73381
H          0.36431       -0.42672       -1.65055
H         -1.92735        0.99805       -0.80751
H         -4.60009       -1.17100       -0.94612
H         -4.81196        0.02866        0.33978
H         -4.10935        0.53284       -1.22467
