22
mol372_clust-3
Br        -3.16266       -0.70045        0.00058
C         -1.73346        0.51088       -0.52108
C         -0.97676        1.04600        0.68178
C          0.12519        2.01755        0.26517
O          1.02678        1.46376       -0.66473
C          1.95877        0.56169       -0.27126
C          2.68151       -0.05349       -1.30267
C          3.67365       -0.97879       -1.00602
C          3.96258       -1.30942        0.32044
C          3.24373       -0.69748        1.34186
C          2.24332        0.23562        1.05916
H         -2.20756        1.31712       -1.09639
H         -1.07423       -0.05541       -1.18964
H         -1.66609        1.57510        1.35873
H         -0.55358        0.20417        1.25115
H         -0.31348        2.88488       -0.25012
H          0.65502        2.40418        1.15296
H          2.44410        0.21779       -2.33279
H          4.22831       -1.44940       -1.82092
H          4.74048       -2.03903        0.55214
H          3.45618       -0.94514        2.38435
H          1.69854        0.69596        1.88364
