23
mol3004_conf-2
C         -3.99253        1.17959       -0.00000
Si        -2.56260       -0.04424        0.00000
C         -2.64621       -1.12595        1.53927
C         -2.64621       -1.12595       -1.53926
C         -0.93651        0.92909       -0.00000
C          0.32949        0.06555       -0.00000
C          1.58898        0.91486       -0.00000
Br         3.21371       -0.16256        0.00000
H         -3.96265        1.82786       -0.89015
H         -4.96123        0.65496       -0.00000
H         -3.96265        1.82786        0.89015
H         -1.83099       -1.86638        1.55692
H         -2.57210       -0.52032        2.45660
H         -3.59809       -1.67913        1.57916
H         -1.83099       -1.86638       -1.55691
H         -3.59809       -1.67913       -1.57916
H         -2.57210       -0.52033       -2.45660
H         -0.93883        1.59584       -0.88156
H         -0.93883        1.59584        0.88156
H          0.34343       -0.59541        0.88199
H          0.34343       -0.59541       -0.88199
H          1.64714        1.55291       -0.89170
H          1.64714        1.55291        0.89170
