21
mol3002_conf-8
C         -0.23873        3.11508        0.49264
O         -0.35957        1.71350        0.30713
C          0.50267        1.15019       -0.52495
O          1.34066        1.74626       -1.14628
C          0.30199       -0.36808       -0.65960
C         -0.61407       -1.00115        0.39092
Br        -2.49671       -0.72032        0.00291
N          1.59697       -1.01457       -0.69296
C          2.49227       -0.79845        0.31981
C          3.89256       -1.30913        0.07437
O          2.16586       -0.21289        1.33283
H          0.73665        3.35796        0.93739
H         -0.33383        3.64403       -0.46613
H         -1.04903        3.40373        1.17036
H         -0.15287       -0.51920       -1.65082
H         -0.46104       -2.08609        0.39145
H         -0.41460       -0.59805        1.38848
H          1.93861       -1.34737       -1.58370
H          4.46404       -0.52534       -0.44612
H          4.37383       -1.50218        1.04001
H          3.90867       -2.21992       -0.54041
