26
mol3001_conf-5
C          5.20282       -2.06869       -0.17495
C          4.00267       -1.16552       -0.07703
C          3.56618       -0.66883        1.15448
C          2.46223        0.17877        1.23937
C          1.78751        0.52491        0.07454
S          0.37894        1.60369        0.16706
O          0.33856        2.16165        1.50946
O          0.36189        2.46845       -1.00273
N         -0.88305        0.52445       -0.05073
C         -2.09079        1.01226       -0.69915
C         -2.94903       -0.14203       -1.17016
Br        -3.62247       -1.21646        0.31330
C          2.20401        0.05235       -1.17068
C          3.30516       -0.78977       -1.23643
H          5.56115       -2.37496        0.81711
H          4.96841       -2.97677       -0.75040
H          6.03169       -1.55951       -0.69126
H          4.09993       -0.94454        2.06717
H          2.12662        0.58005        2.19708
H         -1.06543        0.01675        0.81485
H         -2.68102        1.68431       -0.05090
H         -1.78326        1.59320       -1.58142
H         -3.83179        0.22229       -1.70893
H         -2.37731       -0.82620       -1.80868
H          1.66945        0.35299       -2.07344
H          3.63799       -1.16337       -2.20822
