15
mol3003_conf-2
C         -3.98148       -0.15223        0.38037
C         -2.58254        0.20786       -0.07556
O         -2.24859        1.35241       -0.30536
N         -1.71093       -0.83750       -0.20059
C         -0.33849       -0.62654       -0.60312
C          0.51548       -0.13361        0.56017
Br         2.36860        0.08925        0.02396
H         -4.70111        0.37042       -0.26311
H         -4.19115       -1.23056        0.36220
H         -4.12494        0.22279        1.40422
H         -2.01363       -1.76964        0.04412
H          0.06503       -1.56807       -1.00235
H         -0.31777        0.12197       -1.40861
H          0.50988       -0.84507        1.39593
H          0.16017        0.84495        0.90482
