35
mol3000_conf-11
C         -3.32828       -1.80199       -1.00758
C         -3.66843       -0.79463        0.08985
C         -4.79721        0.14739       -0.32593
O         -2.48873       -0.03367        0.45272
C         -1.84993        0.74743       -0.43057
N         -0.76496        1.35455        0.13933
C          0.12221        2.14799       -0.68944
C          1.49388        1.48452       -0.80212
C          2.08144        1.18583        0.58122
C          1.08296        0.39436        1.43227
C         -0.27687        1.08997        1.47989
C          3.46714        0.55717        0.53047
Br         3.52198       -1.20665       -0.30976
O         -2.18296        0.90854       -1.58560
C         -4.02254       -1.51561        1.38721
H         -4.19385       -2.45615       -1.18941
H         -2.48147       -2.43184       -0.69586
H         -3.06633       -1.29101       -1.94177
H         -4.54593        0.67444       -1.25405
H         -4.98449        0.88832        0.46579
H         -5.72086       -0.42955       -0.48172
H         -0.34521        2.26509       -1.67354
H          0.22566        3.15272       -0.23897
H          1.39142        0.54396       -1.36777
H          2.17579        2.13475       -1.37391
H          2.24584        2.15891        1.08671
H          0.95483       -0.61312        1.00338
H          1.47094        0.26595        2.45601
H         -0.18375        2.05358        2.01514
H         -1.01141        0.48304        2.01716
H          4.16327        1.17781       -0.04832
H          3.87502        0.41240        1.53920
H         -4.22701       -0.79023        2.18815
H         -4.91671       -2.13914        1.24382
H         -3.19301       -2.16275        1.70755
