35
mol3000_conf-12
C         -4.54830       -0.10875       -0.53963
C         -3.41650       -0.83012        0.19043
C         -3.83887       -1.19121        1.61134
O         -2.30243        0.07395        0.40189
C         -1.62525        0.61579       -0.62221
N         -0.59759        1.38760       -0.16047
C          0.27355        2.06405       -1.10375
C          1.71611        1.55768       -0.97757
C          2.07816        1.20774        0.48610
C          1.15383        1.97491        1.44507
C         -0.31473        1.58046        1.25519
C          1.98983       -0.28934        0.77691
Br         3.35729       -1.32293       -0.14931
O         -1.87784        0.44689       -1.79627
C         -2.94904       -2.07406       -0.56375
H         -4.83000        0.80485        0.00519
H         -5.43078       -0.76354       -0.59132
H         -4.24654        0.16316       -1.55819
H         -4.69611       -1.87936        1.58997
H         -4.12839       -0.28832        2.16832
H         -3.01240       -1.68000        2.14771
H          0.22638        3.15129       -0.91724
H         -0.12446        1.88925       -2.10939
H          1.85897        0.67084       -1.61299
H          2.40041        2.32761       -1.36453
H          3.11452        1.51786        0.68931
H          1.44042        1.79993        2.49349
H          1.28836        3.05366        1.26725
H         -0.53229        0.64432        1.78651
H         -0.97759        2.34922        1.69192
H          2.13711       -0.49654        1.84493
H          1.02907       -0.71547        0.45976
H         -2.10418       -2.54350       -0.03723
H         -3.76916       -2.80544       -0.61451
H         -2.63585       -1.82001       -1.58355
