23
mol3004_conf-3
C         -3.35351       -0.74223       -1.06151
Si        -1.91664       -0.16330        0.00944
C         -2.53872        1.08024        1.28430
C         -1.17916       -1.66062        0.88300
C         -0.65207        0.68064       -1.12790
C          0.35468        1.64518       -0.49278
C          1.25401        1.06259        0.58391
Br         2.38591       -0.39313       -0.05937
H         -3.00846       -1.44198       -1.83949
H         -4.11397       -1.26223       -0.45744
H         -3.84476        0.10529       -1.56540
H         -1.72969        1.42294        1.94923
H         -2.96975        1.96896        0.79569
H         -3.32122        0.63473        1.91897
H         -0.35589       -1.39637        1.56402
H         -1.95118       -2.17872        1.47466
H         -0.77705       -2.37797        0.15025
H         -0.11330       -0.10438       -1.68693
H         -1.23070        1.23726       -1.88554
H          0.98822        2.09986       -1.27220
H         -0.18537        2.48193       -0.01381
H          1.94514        1.81796        0.97723
H          0.68272        0.64359        1.42259
