35
mol3000_conf-13
C          3.83874       -1.19119        1.61135
C          3.41633       -0.83015        0.19043
C          4.54806       -0.10865       -0.53961
O          2.30215        0.07379        0.40188
C          1.62508        0.61575       -0.62222
N          0.59756        1.38777       -0.16048
C          0.31472        1.58073        1.25517
C         -1.15389        1.97501        1.44506
C         -2.07812        1.20775        0.48607
C         -1.71615        1.55785       -0.97758
C         -0.27358        2.06422       -1.10377
C         -1.98958       -0.28935        0.77682
Br        -3.35704       -1.32308       -0.14927
O          1.87762        0.44678       -1.79629
C          2.94902       -2.07413       -0.56376
H          4.12819       -0.28828        2.16832
H          4.69603       -1.87928        1.58998
H          3.01231       -1.68005        2.14772
H          4.24634        0.16315       -1.55820
H          5.43064       -0.76331       -0.59118
H          4.82958        0.80503        0.00517
H          0.53246        0.64469        1.78658
H          0.97747        2.34966        1.69178
H         -1.44047        1.79998        2.49347
H         -1.28855        3.05374        1.26724
H         -3.11452        1.51771        0.68932
H         -1.85911        0.67111       -1.61309
H         -2.40045        2.32787       -1.36438
H         -0.22641        3.15145       -0.91725
H          0.12442        1.88943       -2.10941
H         -1.02881       -0.71536        0.45956
H         -2.13672       -0.49659        1.84484
H          2.63580       -1.82009       -1.58356
H          3.76922       -2.80542       -0.61454
H          2.10420       -2.54366       -0.03725
