23
mol3004_conf-7
C         -1.27962       -1.34912       -1.38081
Si        -1.77231       -0.15842       -0.00903
C         -3.63111        0.13800       -0.15191
C         -1.39827       -0.86465        1.69438
C         -0.96724        1.55538       -0.21322
C          0.43354        1.88262        0.32036
C          1.61773        1.30577       -0.44237
Br         2.09747       -0.52507        0.04787
H         -1.81123       -2.30740       -1.26431
H         -1.55267       -0.93556       -2.36526
H         -0.20006       -1.55762       -1.38251
H         -3.99700        0.79536        0.65314
H         -3.88727        0.60994       -1.11434
H         -4.18721       -0.81107       -0.08851
H         -1.70906       -0.16330        2.48569
H         -1.94385       -1.80882        1.85177
H         -0.32418       -1.06786        1.81964
H         -1.67375        2.24146        0.28742
H         -1.02476        1.82748       -1.28355
H          0.57008        2.97802        0.27939
H          0.52177        1.61549        1.38617
H          1.44016        1.28933       -1.52612
H          2.52989        1.88169       -0.24626
