15
mol309_clust-3
Br         2.15820        0.18742       -0.06411
C          0.25083        0.12898        0.31950
C         -0.34167       -1.22886       -0.02663
C         -1.81245       -1.39755        0.36682
C         -2.81960       -0.55949       -0.43702
C         -2.82184        0.86779       -0.10843
N         -2.82007        1.99045        0.16611
H         -0.19348        0.95061       -0.25396
H          0.14322        0.35852        1.38775
H         -0.22126       -1.41632       -1.10647
H          0.24272       -2.00726        0.48805
H         -1.94576       -1.19588        1.44219
H         -2.08291       -2.45366        0.21632
H         -3.84055       -0.93186       -0.26045
H         -2.63000       -0.66220       -1.51775
