23
mol3004_conf-9
C         -2.15440        1.68322        0.94500
Si        -2.29196        0.07795       -0.03509
C         -4.03417       -0.60327        0.17821
C         -1.95103        0.40757       -1.85805
C         -1.07233       -1.23097        0.60556
C          0.37528       -1.17663        0.09503
C          1.08656        0.10886        0.48070
Br         2.95302        0.11399       -0.07691
H         -2.31746        1.50145        2.01949
H         -1.17177        2.16627        0.83290
H         -2.91773        2.40401        0.61030
H         -4.24145       -0.83933        1.23429
H         -4.78896        0.12629       -0.15582
H         -4.17598       -1.52600       -0.40656
H         -0.94256        0.82190       -2.01656
H         -2.02761       -0.51920       -2.44904
H         -2.67489        1.12843       -2.27013
H         -1.08447       -1.20996        1.71060
H         -1.49561       -2.21262        0.32982
H          0.94830       -2.02937        0.49325
H          0.39401       -1.27853       -1.00238
H          0.63752        0.99060        0.00615
H          1.09113        0.26245        1.56819
