24
mol3005_conf-5
F              -5.28100      -0.97120      -0.32220
C              -4.05600      -0.49150      -0.09500
C              -3.87420       0.88030       0.01950
C              -2.59150       1.37050       0.25870
C              -1.49610       0.51030       0.38740
C              -0.09960       1.04200       0.59640
C               0.67990       1.15760      -0.71810
C               2.09490       1.71430      -0.56940
C               3.00170       0.97800       0.40310
Br              3.21880      -0.91520      -0.02650
C              -1.71810      -0.86690       0.26470
C              -2.99140      -1.37670       0.02490
H              -4.73330       1.54600      -0.07680
H              -2.44290       2.44970       0.35140
H              -0.14430       2.02800       1.08880
H               0.43610       0.36850       1.28500
H               0.72680       0.16420      -1.19350
H               0.11860       1.80200      -1.41400
H               2.57710       1.74740      -1.55920
H               2.04650       2.75920      -0.21230
H               2.61950       1.00420       1.43140
H               4.01400       1.39950       0.39970
H              -0.87460      -1.55630       0.36060
H              -3.17130      -2.44890      -0.06760
