22
mol372_clust-5
Br         3.56029       -0.07713       -0.07474
C          2.04089        1.01155        0.49138
C          0.78203        0.20274        0.73550
C          0.23766       -0.49085       -0.50954
O         -0.96530       -1.17275       -0.25171
C         -2.13342       -0.49713       -0.15206
C         -3.24939       -1.26253        0.21554
C         -4.49916       -0.66863        0.32929
C         -4.66282        0.69709        0.08145
C         -3.55495        1.45466       -0.28277
C         -2.29097        0.87127       -0.40131
H          1.90052        1.76149       -0.29893
H          2.36822        1.52275        1.40416
H          0.95538       -0.55126        1.51867
H          0.02248        0.89877        1.13037
H          0.11823        0.22700       -1.34170
H          0.94494       -1.25961       -0.84913
H         -3.10400       -2.32759        0.40377
H         -5.35830       -1.27958        0.61554
H         -5.64573        1.16263        0.17276
H         -3.66455        2.52347       -0.48067
H         -1.44427        1.49459       -0.69008
