21
mol3002_conf-11
C          2.04693        2.83905       -0.15642
O          1.55602        1.59805       -0.63936
C          0.47638        1.11988       -0.01779
O         -0.13113        1.70850        0.82962
C          0.08655       -0.25414       -0.58037
C         -0.97706       -0.92577        0.29104
Br        -2.75596       -0.22841       -0.04664
N          1.24385       -1.10135       -0.77015
C          2.16892       -1.25954        0.22321
C          3.40951       -2.03572       -0.15623
O          2.00136       -0.77422        1.32383
H          2.33816        2.74875        0.89973
H          2.91975        3.08504       -0.77121
H          1.28316        3.62456       -0.24672
H         -0.33872       -0.06930       -1.57923
H         -1.01522       -1.99590        0.05932
H         -0.75998       -0.77865        1.35470
H          1.45160       -1.43264       -1.70128
H          3.82535       -2.49878        0.74611
H          3.21396       -2.80710       -0.91422
H          4.15635       -1.33344       -0.55714
