15
mol309_clust-1
Br        -1.72681        0.27662       -0.22143
C         -0.42829       -0.35590        1.08893
C          0.40302       -1.52268        0.57382
C          1.29228       -1.25364       -0.64178
C          2.55771       -0.42564       -0.37206
C          2.32184        0.97155        0.00024
N          2.13838        2.07220        0.30143
H         -1.01453       -0.65751        1.96524
H          0.17593        0.51966        1.35335
H          1.02710       -1.87217        1.41617
H         -0.27743       -2.35419        0.33235
H          0.69977       -0.77792       -1.43890
H          1.63069       -2.22109       -1.04226
H          3.19347       -0.41756       -1.27098
H          3.15548       -0.88845        0.43015
