26
mol3001_conf-6
C          3.12061       -3.53251       -0.05673
C          2.57882       -2.12972        0.00576
C          1.92659       -1.66058        1.15214
C          1.44756       -0.35475        1.22550
C          1.61538        0.49102        0.13230
S          0.91050        2.12908        0.16793
O          0.58026        2.41542        1.55180
O          1.74527        2.99591       -0.64209
N         -0.51831        2.02004       -0.66021
C         -1.66406        1.29134       -0.16271
C         -1.71441       -0.14753       -0.67152
Br        -3.27280       -1.07569        0.01841
C          2.27590        0.05681       -1.01644
C          2.74880       -1.24919       -1.07257
H          2.57689       -4.20510        0.62094
H          3.05769       -3.94246       -1.07471
H          4.18171       -3.54868        0.24006
H          1.79188       -2.32821        2.00671
H          0.94639        0.01492        2.12174
H         -0.42363        2.19052       -1.65564
H         -1.62366        1.31307        0.93615
H         -2.58288        1.82422       -0.45217
H         -1.78612       -0.18230       -1.76678
H         -0.83573       -0.72266       -0.35456
H          2.42411        0.74403       -1.85192
H          3.26621       -1.59384       -1.97151
