35
mol3000_conf-3
C          4.02268       -1.51541        1.38727
C          3.66850       -0.79457        0.08986
C          4.79697        0.14792       -0.32568
O          2.48839       -0.03413        0.45253
C          1.84978        0.74723       -0.43066
N          0.76491        1.35448        0.13930
C          0.27682        1.08995        1.47988
C         -1.08302        0.39436        1.43226
C         -2.08148        1.18585        0.58122
C         -1.49393        1.48461       -0.80212
C         -0.12223        2.14802       -0.68942
C         -3.46719        0.55717        0.53043
Br        -3.52196       -1.20668       -0.30974
O          2.18286        0.90841       -1.58566
C          3.32897       -1.80205       -1.00764
H          4.22678       -0.78997        2.18826
H          4.91709       -2.13863        1.24402
H          3.19333       -2.16285        1.70749
H          4.54573        0.67480       -1.25392
H          5.72091       -0.42863       -0.48119
H          4.98374        0.88899        0.46603
H          1.01134        0.48300        2.01716
H          0.18374        2.05358        2.01507
H         -0.95489       -0.61311        1.00337
H         -1.47103        0.26594        2.45600
H         -2.24588        2.15891        1.08673
H         -1.39147        0.54408       -1.36782
H         -2.17585        2.13487       -1.37386
H         -0.22561        3.15272       -0.23889
H          0.34519        2.26513       -1.67352
H         -3.87509        0.41243        1.53916
H         -4.16330        1.17779       -0.04839
H          2.48238       -2.43228       -0.69607
H          3.06694       -1.29117       -1.94186
H          4.19486       -2.45582       -1.18935
