21
mol3002_conf-1
C         -2.65641       -2.20729       -0.92714
O         -1.36985       -1.70966       -0.58167
C         -1.27905       -1.06605        0.58185
O         -2.19820       -0.91041        1.33764
C          0.11738       -0.52383        0.85571
C          0.04703        0.97454        1.15091
Br        -0.46618        2.00191       -0.41946
N          1.06255       -0.87070       -0.16999
C          2.40427       -0.82530        0.07216
C          3.28780       -1.12153       -1.11958
O          2.84694       -0.53895        1.16800
H         -3.37810       -1.38207       -1.00334
H         -2.54188       -2.70525       -1.89570
H         -3.01113       -2.91971       -0.16961
H          0.44970       -0.98740        1.80154
H         -0.70115        1.17490        1.92641
H          1.03312        1.33284        1.46634
H          0.70552       -1.06495       -1.09566
H          2.81210       -1.79496       -1.84603
H          3.52735       -0.17457       -1.62678
H          4.22584       -1.56194       -0.76146
