21
mol3002_conf-6
C         -4.06737       -0.83287       -0.34317
O         -2.66081       -0.77559       -0.54128
C         -1.99694        0.13871        0.16181
O         -2.51008        0.89406        0.94322
C         -0.49679        0.07582       -0.11915
C          0.03525       -1.27027        0.38747
Br         1.92514       -1.49928        0.03939
N          0.15621        1.20898        0.46313
C          0.84538        2.11498       -0.30538
C          1.41477        3.28404        0.46804
O          1.01235        1.96334       -1.49599
H         -4.43438       -1.63717       -0.98933
H         -4.30332       -1.04897        0.70844
H         -4.53562        0.12197       -0.62044
H         -0.34057        0.13795       -1.20742
H         -0.09656       -1.35973        1.47448
H         -0.48835       -2.09631       -0.10707
H         -0.12066        1.46909        1.40170
H          2.30967        2.95337        1.01666
H          1.70419        4.06913       -0.23930
H          0.69493        3.68545        1.19625
