15
mol3003_conf-1
C          2.97173       -1.34997        0.00888
C          2.22430       -0.03551       -0.06660
O          2.49208        0.82928       -0.87693
N          1.20604        0.10919        0.83481
C          0.31399        1.23959        0.76566
C         -0.73245        1.13652       -0.33361
Br        -1.90131       -0.40459       -0.08892
H          3.98794       -1.19931       -0.37375
H          3.01370       -1.75488        1.02981
H          2.46787       -2.08571       -0.63672
H          0.91795       -0.69200        1.38058
H         -0.16836        1.37530        1.74456
H          0.91768        2.13617        0.55535
H         -0.25417        1.01775       -1.31335
H         -1.38106        2.02107       -0.34835
