26
mol3001_conf-3
C         -4.83321       -2.48025       -0.18521
C         -3.75224       -1.43972       -0.06542
C         -2.69584       -1.59708        0.83831
C         -1.71029       -0.62149        0.97257
C         -1.77877        0.52427        0.18371
S         -0.49573        1.75584        0.29704
O         -1.06704        3.03732       -0.06875
O          0.19922        1.53118        1.55331
N          0.57960        1.39301       -0.90848
C          1.39941        0.19597       -0.85839
C          2.69367        0.45345       -0.09794
Br         3.78625       -1.15124       -0.04530
C         -2.82670        0.71308       -0.71801
C         -3.80192       -0.26956       -0.83745
H         -5.72352       -2.17927        0.38996
H         -5.14753       -2.61235       -1.23052
H         -4.50133       -3.45371        0.20103
H         -2.64392       -2.49733        1.45552
H         -0.89975       -0.73366        1.69482
H          0.31175        1.76966       -1.81055
H          0.85287       -0.64515       -0.39635
H          1.62177       -0.10862       -1.89105
H          3.28803        1.23739       -0.58278
H          2.48147        0.74333        0.93741
H         -2.88001        1.63233       -1.30465
H         -4.62612       -0.12388       -1.54038
