35
mol3000_conf-8
C          4.65720       -1.82018       -0.00001
C          4.23641       -0.35547        0.07453
C          4.52053        0.21531        1.46330
O          2.80740       -0.41447       -0.15970
C          2.04367        0.68947       -0.16445
N          0.73760        0.36152       -0.38353
C          0.29305       -1.01428       -0.57381
C         -1.22524       -1.10607       -0.42050
C         -1.69245       -0.28259        0.78139
C         -1.35697        1.21285        0.58411
C         -0.26145        1.41068       -0.46677
C         -3.14328       -0.52661        1.16956
Br        -4.42940       -0.07350       -0.23176
O          2.44846        1.82136        0.00130
C          4.91732        0.45549       -1.02714
H          5.74120       -1.91327        0.15891
H          4.40999       -2.24208       -0.98496
H          4.13901       -2.41034        0.76988
H          5.59746        0.14803        1.67759
H          3.98167       -0.36271        2.22925
H          4.20981        1.26525        1.52543
H          0.60512       -1.39787       -1.56107
H          0.78158       -1.65011        0.17939
H         -1.73591       -0.75389       -1.33065
H         -1.50477       -2.16420       -0.30028
H         -1.11781       -0.64642        1.65395
H         -2.25438        1.76414        0.26183
H         -1.03887        1.64692        1.54423
H          0.25303        2.36864       -0.33278
H         -0.70289        1.41485       -1.47840
H         -3.32439       -1.58411        1.40074
H         -3.43006        0.08094        2.03764
H          4.65732        0.04679       -2.01518
H          4.60987        1.50728       -0.98525
H          6.00941        0.39727       -0.90796
