15
mol3003_conf-3
C          3.98148       -0.15224        0.38037
C          2.58254        0.20785       -0.07556
O          2.24860        1.35241       -0.30535
N          1.71093       -0.83750       -0.20059
C          0.33849       -0.62653       -0.60313
C         -0.51548       -0.13362        0.56017
Br        -2.36860        0.08925        0.02396
H          4.19114       -1.23057        0.36231
H          4.70111        0.37033       -0.26319
H          4.12498        0.22290        1.40417
H          2.01363       -1.76964        0.04411
H          0.31777        0.12199       -1.40860
H         -0.06503       -1.56805       -1.00237
H         -0.16017        0.84493        0.90484
H         -0.50989       -0.84510        1.39592
