15
mol309_clust-5
Br        -2.60824       -0.07798       -0.00001
C         -0.84240        0.73577        0.00004
C          0.26487       -0.30322       -0.00004
C          1.64713        0.34776       -0.00001
C          2.76748       -0.69968       -0.00002
C          4.10337       -0.10220        0.00026
N          5.14910        0.38915       -0.00015
H         -0.79943        1.37541        0.89128
H         -0.79944        1.37552       -0.89113
H          0.15591       -0.95334        0.88337
H          0.15590       -0.95323       -0.88353
H          1.75983        0.99772        0.88277
H          1.75984        0.99780       -0.88272
H          2.68454       -1.35263        0.88346
H          2.68463       -1.35249       -0.88363
