35
mol3000_conf-7
C          4.60744        1.83922        0.50115
C          4.23338        0.36398        0.39203
C          5.03755       -0.31325       -0.71686
O          2.82868        0.40933        0.03721
C          2.11371       -0.70808       -0.17000
N          0.83095       -0.40320       -0.51965
C          0.33985        0.96476       -0.61637
C         -0.90154        1.00469       -1.49949
C         -2.05645        0.13518       -0.95002
C         -1.49101       -1.06619       -0.16734
C         -0.12408       -1.49109       -0.68514
C         -2.99035        0.99430       -0.10837
Br        -4.52580        0.01320        0.58275
O          2.53491       -1.84067       -0.06186
C          4.41324       -0.33622        1.73828
H          4.44504        2.35083       -0.45878
H          5.66642        1.94382        0.77785
H          3.99471        2.33613        1.26728
H          4.76931       -1.37295       -0.80487
H          6.11207       -0.23463       -0.49446
H          4.84950        0.18381       -1.68051
H          0.11361        1.37329        0.38699
H          1.12718        1.60018       -1.04036
H         -1.22422        2.05019       -1.62386
H         -0.62257        0.64847       -2.50314
H         -2.63563       -0.24157       -1.80867
H         -1.38984       -0.80144        0.89913
H         -2.18811       -1.91467       -0.20938
H         -0.19252       -1.79476       -1.74638
H          0.25753       -2.35908       -0.13348
H         -2.47406        1.40824        0.76968
H         -3.40878        1.82199       -0.69476
H          4.13482       -1.39461        1.66884
H          5.46404       -0.26333        2.05567
H          3.78881        0.14764        2.50437
