22
mol431_clust-6
Br        -3.98252        0.06211       -0.00284
C         -2.13293        0.63599       -0.08476
C         -1.19351       -0.54713        0.04417
O          0.10869       -0.04792       -0.02585
C          1.10041       -1.02622        0.07776
C          2.47423       -0.40457        0.02860
C          2.64803        0.97960        0.06226
C          3.93067        1.52818        0.03173
C          5.04963        0.70091       -0.03037
C          4.88089       -0.68398       -0.06441
C          3.60121       -1.23139       -0.03684
H         -1.97499        1.35135        0.73130
H         -1.98921        1.14601       -1.04485
H         -1.38771       -1.27590       -0.76773
H         -1.37144       -1.07084        1.00454
H          1.00084       -1.76830       -0.74098
H          0.98662       -1.58989        1.02750
H          1.76831        1.62207        0.10880
H          4.05433        2.61332        0.05662
H          6.05262        1.13242       -0.05422
H          5.75181       -1.34122       -0.11580
H          3.47588       -2.31785       -0.06801
