17
mol480_clust-5
C          2.22409       -1.78434       -0.32456
C          2.02492       -0.35828        0.10155
O          2.38173        0.12058        1.14547
O          1.36595        0.33829       -0.83933
C          1.03029        1.68417       -0.53394
C         -0.17110        1.81736        0.39236
C         -1.47922        1.23644       -0.12075
Br        -1.62875       -0.70182        0.06176
H          2.91446       -2.28267        0.36441
H          2.59959       -1.83010       -1.35535
H          1.24794       -2.29152       -0.30370
H          1.89720        2.18566       -0.07827
H          0.82062        2.15049       -1.50740
H         -0.33493        2.89906        0.53902
H          0.07296        1.40381        1.38207
H         -1.63712        1.45306       -1.18589
H         -2.32972        1.63274        0.44629
