22
mol431_clust-5
Br         3.05032       -0.68823       -0.01144
C          2.54025        1.15659       -0.38572
C          1.31489        1.64306        0.37269
O          0.09426        1.22204       -0.14943
C         -0.37973       -0.03966        0.24293
C         -1.88007       -0.10947        0.08927
C         -2.65706        1.04797        0.01353
C         -4.04506        0.95961       -0.09121
C         -4.67134       -0.28506       -0.11770
C         -3.89993       -1.44518       -0.04484
C         -2.51344       -1.35624        0.05297
H          2.36792        1.22038       -1.46745
H          3.41589        1.76286       -0.12136
H          1.31755        2.74314        0.29187
H          1.40650        1.38967        1.44692
H         -0.11098       -0.23159        1.30189
H          0.09062       -0.84571       -0.34814
H         -2.15984        2.01870        0.02684
H         -4.64176        1.87266       -0.15377
H         -5.75835       -0.35271       -0.19990
H         -4.38074       -2.42567       -0.07174
H         -1.91325       -2.26970        0.09914
