19
mol425_conf-6
Br         2.53605       -0.52067       -0.32848
C          1.48503        1.11059       -0.31273
C          0.73772        1.30545        0.99539
O         -0.16071        0.27459        1.29544
C         -1.30841        0.12884        0.58852
C         -1.83288        1.08511       -0.28758
C         -3.04235        0.83344       -0.94042
C         -3.73376       -0.35503       -0.73258
C         -3.20365       -1.30569        0.14402
C         -2.00190       -1.07040        0.79836
H          2.18140        1.94353       -0.47327
H          0.80379        1.04534       -1.17025
H          1.44986        1.32868        1.83178
H          0.23171        2.28884        0.96741
H         -1.31969        2.02997       -0.46960
H         -3.44262        1.58735       -1.62215
H         -4.67675       -0.54342       -1.24876
H         -3.73289       -2.24539        0.31734
H         -1.56966       -1.80202        1.48277
