19
mol425_conf-3
Br         2.86699       -0.40112       -0.33204
C          1.99301        0.93633        0.77057
C          0.56327        1.19049        0.35647
O         -0.19003        0.03884        0.60755
C         -1.49848        0.01112        0.26406
C         -2.19263        1.09521       -0.28202
C         -3.54784        0.95681       -0.59510
C         -4.21508       -0.24198       -0.37043
C         -3.51316       -1.32056        0.17641
C         -2.16693       -1.19970        0.49189
H          2.03723        0.57220        1.80441
H          2.58304        1.85648        0.68190
H          0.18165        2.04496        0.94982
H          0.51706        1.47257       -0.71119
H         -1.69684        2.04823       -0.46782
H         -4.08220        1.80868       -1.02183
H         -5.27345       -0.34035       -0.61839
H         -4.02294       -2.26954        0.35738
H         -1.60098       -2.03088        0.91571
