19
mol467_clust-3
C          2.28141       -1.82833        0.21119
C          2.07659       -0.36870       -0.11744
O          2.37623        0.09508       -1.19232
C          1.47590        0.48836        0.98429
C          0.94523        1.83642        0.50632
C         -0.21274        1.79924       -0.49527
C         -1.53119        1.22480       -0.00030
Br        -1.63188       -0.73278       -0.02063
H          1.29541       -2.32050        0.21532
H          2.71466       -1.95658        1.21445
H          2.91857       -2.30061       -0.54641
H          0.71151       -0.09728        1.51878
H          2.28591        0.65036        1.71905
H          0.64194        2.42747        1.38697
H          1.77439        2.38273        0.03166
H         -0.43008        2.84118       -0.78708
H          0.09959        1.28708       -1.41761
H         -2.36359        1.53931       -0.64069
H         -1.75361        1.52283        1.03346
