19
mol425_conf-12
Br        -2.29344       -0.70891       -0.28684
C         -2.12070        1.14962        0.25556
C         -0.77724        1.48832        0.86651
O          0.25060        1.47379       -0.08768
C          1.30631        0.62273        0.00287
C          2.47263        1.02869       -0.65638
C          3.60203        0.21828       -0.64139
C          3.58907       -1.00178        0.03713
C          2.42584       -1.40272        0.68844
C          1.28127       -0.60422        0.67261
H         -2.29085        1.75064       -0.64618
H         -2.92482        1.34247        0.97708
H         -0.85256        2.52135        1.25113
H         -0.55536        0.83692        1.72602
H          2.46669        1.98885       -1.17501
H          4.50497        0.54720       -1.16081
H          4.47728       -1.63603        0.05196
H          2.39452       -2.36127        1.21140
H          0.37051       -0.96226        1.15320
