17
mol480_clust-1
C         -4.46460       -1.06535        0.00017
C         -3.45923        0.05329       -0.00014
O         -3.71261        1.22782        0.00010
O         -2.20384       -0.42287       -0.00033
C         -1.15982        0.54127       -0.00009
C          0.16004       -0.20943       -0.00014
C          1.33449        0.75274        0.00010
Br         3.04009       -0.17927        0.00003
H         -4.31462       -1.70159       -0.88343
H         -5.47713       -0.64826       -0.00284
H         -4.31846       -1.69709        0.88767
H         -1.25843        1.19089        0.88527
H         -1.25832        1.19120       -0.88523
H          0.20750       -0.86214        0.88489
H          0.20761       -0.86183       -0.88539
H          1.33753        1.39422        0.89121
H          1.33763        1.39453       -0.89080
