17
mol480_clust-3
C         -4.30369       -0.59784       -0.65984
C         -3.07137       -0.26554        0.13467
O         -2.71800       -0.81545        1.14323
O         -2.39097        0.74599       -0.43219
C         -1.18811        1.15732        0.20515
C         -0.01214        0.28346       -0.21552
C          1.27721        0.76199        0.42682
Br         2.80582       -0.30939       -0.11630
H         -4.92701        0.29921       -0.77872
H         -4.86599       -1.38813       -0.15138
H         -4.01332       -0.93155       -1.66630
H         -1.32178        1.12635        1.29727
H         -1.03574        2.20027       -0.10701
H          0.08138        0.30399       -1.31228
H         -0.21179       -0.75588        0.08478
H          1.23406        0.69761        1.52199
H          1.51688        1.79635        0.14605
