22
mol431_clust-3
Br         2.46295       -0.81527       -0.02915
C          2.23860        1.01436       -0.67654
C          0.79880        1.49625       -0.75718
O          0.25650        1.92126        0.45978
C         -0.35605        0.94280        1.27172
C         -1.54092        0.27074        0.61279
C         -2.54574        1.04699        0.02243
C         -3.64380        0.44225       -0.58236
C         -3.75259       -0.94978       -0.60409
C         -2.75467       -1.72988       -0.02464
C         -1.65143       -1.12064        0.57521
H          2.82078        1.65534       -0.00278
H          2.69729        1.02392       -1.67329
H          0.16509        0.73645       -1.25011
H          0.80821        2.38489       -1.41042
H         -0.69024        1.48977        2.16641
H          0.36834        0.18017        1.60356
H         -2.45318        2.13602        0.03504
H         -4.42225        1.05825       -1.03843
H         -4.61462       -1.42477       -1.07774
H         -2.82866       -2.81942       -0.04653
H         -0.85936       -1.73462        1.01220
