19
mol467_clust-1
C          2.17164       -1.82702       -0.30103
C          1.84107       -0.44756        0.21599
O          1.76650       -0.20964        1.39893
C          1.63471        0.63116       -0.83793
C          1.05729        1.93838       -0.30184
C         -0.46726        2.01738       -0.17640
C         -1.14187        1.00559        0.74132
Br        -1.53327       -0.70724       -0.12744
H          2.53746       -2.45797        0.51804
H          2.91047       -1.78465       -1.11508
H          1.25014       -2.26867       -0.71216
H          2.63685        0.81144       -1.26789
H          1.03268        0.21610       -1.66345
H          1.51177        2.13000        0.68305
H          1.37397        2.76214       -0.95998
H         -0.71208        3.01375        0.22992
H         -0.93928        1.97615       -1.17202
H         -2.12197        1.36459        1.07586
H         -0.52108        0.76019        1.61200
