19
mol467_clust-2
C         -2.69077       -1.71974        0.04066
C         -2.81447       -0.22368       -0.13974
O         -3.84354        0.36999        0.07303
C         -1.55635        0.50956       -0.57531
C         -0.76680        0.98076        0.65247
C          0.48939        1.78399        0.31903
C          1.48575        1.10718       -0.60709
Br         2.11092       -0.61858        0.06179
H         -2.62001       -2.19440       -0.95152
H         -3.56919       -2.11265        0.56691
H         -1.76804       -1.97698        0.58299
H         -0.93367       -0.15699       -1.19365
H         -1.86096        1.37656       -1.18176
H         -1.42622        1.60234        1.27810
H         -0.48243        0.10928        1.26519
H          0.20173        2.72958       -0.17469
H          0.99636        2.06367        1.25599
H          2.38669        1.71877       -0.73647
H          1.06126        0.90274       -1.59820
