19
mol425_conf-2
Br        -2.86701       -0.40111       -0.33204
C         -1.99300        0.93630        0.77060
C         -0.56327        1.19047        0.35649
O          0.19003        0.03880        0.60750
C          1.49849        0.01110        0.26404
C          2.19263        1.09521       -0.28201
C          3.54785        0.95683       -0.59508
C          4.21510       -0.24196       -0.37041
C          3.51319       -1.32055        0.17640
C          2.16695       -1.19971        0.49186
H         -2.03720        0.57213        1.80444
H         -2.58302        1.85646        0.68198
H         -0.51707        1.47258       -0.71116
H         -0.18162        2.04491        0.94985
H          1.69682        2.04822       -0.46782
H          4.08220        1.80871       -1.02180
H          5.27348       -0.34031       -0.61836
H          4.02298       -2.26953        0.35737
H          1.60101       -2.03091        0.91567
