19
mol467_clust-5
C         -4.27007       -0.87861       -0.59359
C         -3.08509       -0.31144        0.15506
O         -2.65387       -0.83130        1.15578
C         -2.47001        0.95573       -0.42043
C         -1.13042        1.33288        0.19877
C          0.00656        0.40097       -0.22449
C          1.31538        0.78376        0.44102
Br         2.79037       -0.35899       -0.11673
H         -3.91211       -1.35023       -1.52302
H         -4.97744       -0.08723       -0.88310
H         -4.77336       -1.63578        0.01985
H         -3.21207        1.75791       -0.25730
H         -2.39525        0.85088       -1.51703
H         -0.88233        2.36959       -0.08222
H         -1.23358        1.31144        1.29532
H         -0.24610       -0.63615        0.04366
H          0.12978        0.43397       -1.31987
H          1.25500        0.69117        1.53318
H          1.61718        1.80978        0.19167
