19
mol425_conf-11
Br         2.29352       -0.70880       -0.28688
C          2.12077        1.14964        0.25593
C          0.77714        1.48804        0.86664
O         -0.25040        1.47344       -0.08787
C         -1.30629        0.62259        0.00270
C         -1.28132       -0.60439        0.67237
C         -2.42598       -1.40273        0.68833
C         -3.58927       -1.00159        0.03722
C         -3.60216        0.21851       -0.64123
C         -2.47263        1.02876       -0.65636
H          2.92474        1.34229        0.97767
H          2.29110        1.75087       -0.64563
H          0.55521        0.83630        1.72588
H          0.85213        2.52097        1.25162
H         -0.37049       -0.96254        1.15279
H         -2.39473       -2.36132        1.21123
H         -4.47757       -1.63571        0.05218
H         -4.50513        0.54759       -1.16051
H         -2.46664        1.98892       -1.17499
