22
mol431_clust-7
Br         3.04682        0.32977       -0.03606
C          1.41330        0.24414        1.01378
C          0.67031       -1.07176        0.85259
O          0.35280       -1.43636       -0.45827
C         -0.37250       -0.50262       -1.21719
C         -1.70431       -0.11723       -0.60896
C         -2.56832       -1.10938       -0.12974
C         -3.79744       -0.76846        0.42775
C         -4.18231        0.57119        0.51067
C         -3.32874        1.56531        0.03816
C         -2.09356        1.22037       -0.51272
H          0.80338        1.10530        0.71233
H          1.70083        0.37765        2.06424
H         -0.24133       -0.99311        1.47987
H          1.28005       -1.89490        1.25191
H         -0.53473       -0.99136       -2.18981
H          0.22679        0.40559       -1.41698
H         -2.26090       -2.15650       -0.19174
H         -4.46258       -1.55165        0.79854
H         -5.14746        0.83838        0.94651
H         -3.62119        2.61566        0.10323
H         -1.42262        2.00460       -0.87593
