17
mol480_clust-2
C          4.30372       -0.59780       -0.65985
C          3.07139       -0.26554        0.13466
O          2.71807       -0.81543        1.14325
O          2.39095        0.74595       -0.43222
C          1.18811        1.15728        0.20517
C          0.01212        0.28344       -0.21552
C         -1.27723        0.76197        0.42683
Br        -2.80584       -0.30939       -0.11630
H          4.92712        0.29922       -0.77855
H          4.01338       -0.93131       -1.66639
H          4.86594       -1.38821       -0.15149
H          1.03575        2.20024       -0.10694
H          1.32179        1.12627        1.29729
H          0.21177       -0.75589        0.08476
H         -0.08140        0.30400       -1.31228
H         -1.51690        1.79633        0.14607
H         -1.23408        0.69758        1.52199
