17
mol480_clust-4
C         -2.22410       -1.78434       -0.32456
C         -2.02491       -0.35828        0.10156
O         -2.38172        0.12059        1.14547
O         -1.36594        0.33829       -0.83933
C         -1.03029        1.68417       -0.53394
C          0.17111        1.81736        0.39236
C          1.47922        1.23644       -0.12075
Br         1.62875       -0.70182        0.06176
H         -1.24794       -2.29152       -0.30373
H         -2.59963       -1.83009       -1.35534
H         -2.91445       -2.28267        0.36442
H         -1.89720        2.18567       -0.07828
H         -0.82061        2.15049       -1.50740
H         -0.07296        1.40381        1.38207
H          0.33494        2.89906        0.53903
H          2.32972        1.63274        0.44629
H          1.63713        1.45306       -1.18588
