19
mol425_conf-7
Br        -2.53648       -0.52026       -0.32884
C         -1.48514        1.11078       -0.31165
C         -0.73757        1.30409        0.99660
O          0.16085        0.27292        1.29544
C          1.30864        0.12813        0.58843
C          1.83262        1.08504       -0.28720
C          3.04226        0.83426       -0.94016
C          3.73421       -0.35396       -0.73286
C          3.20453       -1.30532        0.14328
C          2.00268       -1.07090        0.79772
H         -0.80418        1.04635       -1.16944
H         -2.18134        1.94409       -0.47104
H         -0.23151        2.28749        0.96974
H         -1.44975        1.32639        1.83300
H          1.31892        2.02971       -0.46887
H          3.44214        1.58869       -1.62153
H          4.67733       -0.54174       -1.24908
H          3.73427       -2.24483        0.31611
H          1.57077       -1.80302        1.48182
