22
mol431_clust-8
Br         3.48016       -0.04057        0.00676
C          1.92901        0.93722       -0.63832
C          0.67425        0.09869       -0.65565
O          0.31597       -0.23150        0.65314
C         -0.76685       -1.11340        0.75374
C         -2.09287       -0.49765        0.35320
C         -2.37869        0.82831        0.69709
C         -3.60283        1.39911        0.35788
C         -4.56084        0.64887       -0.32560
C         -4.28362       -0.67183       -0.67275
C         -3.05297       -1.23829       -0.33953
H          2.17352        1.28523       -1.64915
H          1.80671        1.80174        0.02594
H          0.83075       -0.81349       -1.26507
H         -0.12158        0.69151       -1.15163
H         -0.80507       -1.41913        1.81097
H         -0.58512       -2.02827        0.15579
H         -1.62333        1.41166        1.22941
H         -3.81329        2.43583        0.63047
H         -5.52154        1.09582       -0.59048
H         -5.02570       -1.26353       -1.21343
H         -2.83614       -2.27169       -0.62506
