22
mol431_clust-4
Br        -2.89211       -0.79475       -0.16620
C         -2.60702        0.94818        0.64570
C         -1.43697        1.68355        0.03640
O         -0.26334        0.99241        0.31649
C          0.87950        1.49381       -0.31189
C          2.03362        0.54165       -0.12224
C          1.80206       -0.82063        0.08574
C          2.87383       -1.70185        0.21915
C          4.18505       -1.23379        0.14186
C          4.42086        0.12494       -0.06459
C          3.34968        1.00735       -0.19121
H         -2.43595        0.77020        1.71451
H         -3.53547        1.51616        0.51167
H         -1.41352        2.70524        0.47282
H         -1.58485        1.79907       -1.05626
H          1.14473        2.49441        0.08605
H          0.68820        1.62570       -1.39799
H          0.77287       -1.17792        0.15035
H          2.68197       -2.76440        0.38528
H          5.02310       -1.92637        0.24677
H          5.44467        0.50176       -0.11959
H          3.54108        2.07381       -0.34210
