19
mol425_conf-4
Br         3.08446        0.30898       -0.07785
C          1.33429       -0.36693       -0.56783
C          0.62010       -0.93465        0.65208
O         -0.65333       -1.41540        0.30545
C         -1.69611       -0.55824        0.16341
C         -1.63184        0.82099        0.38862
C         -2.77944        1.60028        0.22184
C         -3.98510        1.02644       -0.16700
C         -4.04077       -0.35167       -0.39155
C         -2.90894       -1.13975       -0.22939
H          0.78129        0.46903       -1.01359
H          1.48159       -1.14277       -1.32874
H          0.56739       -0.18601        1.46049
H          1.17711       -1.79873        1.03959
H         -0.70277        1.30455        0.69280
H         -2.71776        2.67616        0.40043
H         -4.87533        1.64448       -0.29597
H         -4.97965       -0.81908       -0.69689
H         -2.93446       -2.21758       -0.39814
