19
mol467_clust-7
C         -3.18094       -0.65423        1.33647
C         -3.06192       -0.39440       -0.15135
O         -3.37825       -1.22706       -0.96529
C         -2.53229        0.96720       -0.57588
C         -1.20724        1.36775        0.07792
C         -0.06019        0.41700       -0.26813
C          1.24131        0.84942        0.38229
Br         2.71316       -0.35096       -0.03893
H         -3.61849        0.20764        1.86265
H         -2.17936       -0.82282        1.76384
H         -3.78828       -1.55201        1.50375
H         -2.44183        0.95121       -1.67189
H         -3.30439        1.71301       -0.31797
H         -0.94931        2.38855       -0.24862
H         -1.32839        1.42503        1.17348
H         -0.30250       -0.61006        0.05242
H          0.06879        0.37384       -1.36159
H          1.16350        0.86313        1.47761
H          1.55341        1.84608        0.04317
