19
mol467_clust-8
C          4.29961       -0.34381        0.24710
C          2.81007       -0.40025       -0.01459
O          2.15354       -1.37638        0.25567
C          2.19254        0.84134       -0.63910
C          0.67037        0.83388       -0.69859
C          0.00818        0.94728        0.67254
C         -1.50064        1.10902        0.63334
Br        -2.42656       -0.43702       -0.11652
H          4.48982        0.32746        1.10005
H          4.84270        0.06781       -0.61669
H          4.67386       -1.34566        0.49040
H          2.57463        1.72969       -0.10464
H          2.61565        0.91728       -1.65682
H          0.33561        1.66901       -1.33652
H          0.33449       -0.09435       -1.18539
H          0.40163        1.83670        1.19886
H          0.27103        0.07083        1.28429
H         -1.91540        1.23846        1.64032
H         -1.80343        1.96480        0.01475
