19
mol425_conf-9
Br        -2.29345       -0.70888       -0.28683
C         -2.12076        1.14966        0.25561
C         -0.77726        1.48828        0.86652
O          0.25052        1.47362       -0.08773
C          1.30627        0.62266        0.00286
C          1.28129       -0.60435        0.67249
C          2.42593       -1.40275        0.68833
C          3.58917       -1.00168        0.03713
C          3.60208        0.21843       -0.64130
C          2.47262        1.02876       -0.65629
H         -2.29094        1.75070       -0.64611
H         -2.92486        1.34248        0.97715
H         -0.55542        0.83682        1.72600
H         -0.85244        2.52131        1.25115
H          0.37051       -0.96255        1.15295
H          2.39464       -2.36135        1.21121
H          4.47742       -1.63587        0.05198
H          4.50502        0.54748       -1.16064
H          2.46664        1.98896       -1.17484
