19
mol425_conf-1
Br        -3.37037        0.22072        0.00000
C         -1.76140       -0.85844       -0.00000
C         -0.52836        0.02406       -0.00001
O          0.57668       -0.84132       -0.00001
C          1.82742       -0.32189       -0.00001
C          2.10826        1.04800       -0.00001
C          3.43836        1.47636       -0.00000
C          4.48534        0.56119        0.00001
C          4.19504       -0.80614        0.00001
C          2.87903       -1.24841        0.00000
H         -1.79008       -1.49250        0.89407
H         -1.79008       -1.49251       -0.89407
H         -0.52495        0.67419        0.89353
H         -0.52496        0.67419       -0.89354
H          1.30825        1.78841       -0.00001
H          3.64904        2.54820       -0.00000
H          5.52057        0.90646        0.00001
H          5.00596       -1.53795        0.00001
H          2.63376       -2.31165        0.00000
