19
mol425_conf-10
Br        -3.37017        0.22093       -0.00015
C         -1.76146       -0.85879        0.00002
C         -0.52824        0.02344        0.00044
O          0.57676       -0.84200        0.00049
C          1.82739       -0.32213        0.00014
C          2.87922       -1.24835       -0.00010
C          4.19518       -0.80570       -0.00033
C          4.48499        0.56178       -0.00024
C          3.43775        1.47664        0.00002
C          2.10770        1.04772        0.00015
H         -1.79021       -1.49314        0.89398
H         -1.78977       -1.49284       -0.89416
H         -0.52463        0.67368       -0.89304
H         -0.52510        0.67333        0.89419
H          2.63433       -2.31180       -0.00002
H          5.00653       -1.53706       -0.00050
H          5.52033        0.90719       -0.00047
H          3.64802        2.54856        0.00011
H          1.30733        1.78795        0.00046
