19
mol467_clust-4
C         -4.82722       -0.83276       -0.03738
C         -3.63236        0.09426        0.01811
O         -3.75589        1.29460        0.04011
C         -2.26557       -0.56972        0.03575
C         -1.10572        0.41231       -0.02932
C          0.25515       -0.28098        0.01520
C          1.39397        0.72048       -0.04943
Br         3.13964       -0.14062        0.00595
H         -4.74627       -1.62894        0.71785
H         -4.86345       -1.32375       -1.02300
H         -5.75038       -0.26029        0.11366
H         -2.22302       -1.29526       -0.79630
H         -2.20880       -1.18490        0.95240
H         -1.19506        1.01464       -0.94820
H         -1.19694        1.12882        0.80268
H          0.34599       -0.87620        0.93891
H          0.34642       -0.99073       -0.82366
H          1.37069        1.41718        0.79866
H          1.37095        1.30277       -0.97981
