22
mol431_clust-2
Br        -3.31906       -0.60540       -0.23429
C         -2.06589        0.56070        0.67626
C         -0.80423        0.74413       -0.14344
O          0.02695        1.61218        0.57794
C          1.26049        1.87179       -0.03503
C          2.20545        0.68678       -0.02841
C          3.05267        0.43566       -1.10982
C          3.94530       -0.63589       -1.07925
C          3.98944       -1.47579        0.03177
C          3.13869       -1.23772        1.11201
C          2.25504       -0.16179        1.08284
H         -1.83957        0.10219        1.64646
H         -2.57037        1.52044        0.84061
H         -1.05233        1.17030       -1.13545
H         -0.31823       -0.23460       -0.31539
H          1.70672        2.70334        0.53285
H          1.11610        2.22675       -1.07458
H          3.01303        1.08372       -1.99011
H          4.60246       -0.82029       -1.93200
H          4.68283       -2.31928        0.05477
H          3.16562       -1.89513        1.98400
H          1.58359        0.02669        1.92398
