19
mol467_clust-6
C         -4.29960       -0.34382        0.24712
C         -2.81006       -0.40026       -0.01460
O         -2.15352       -1.37639        0.25564
C         -2.19254        0.84135       -0.63910
C         -0.67038        0.83390       -0.69859
C         -0.00819        0.94727        0.67254
C          1.50063        1.10901        0.63335
Br         2.42656       -0.43702       -0.11652
H         -4.84270        0.06793       -0.61660
H         -4.48977        0.32733        1.10017
H         -4.67386       -1.34570        0.49029
H         -2.57465        1.72969       -0.10464
H         -2.61566        0.91729       -1.65683
H         -0.33448       -0.09431       -1.18542
H         -0.33562        1.66905       -1.33650
H         -0.40164        1.83668        1.19887
H         -0.27104        0.07081        1.28427
H          1.91538        1.23845        1.64033
H          1.80342        1.96480        0.01477
