19
mol425_conf-8
Br         2.29384       -0.70871       -0.28699
C          2.12064        1.14959        0.25600
C          0.77707        1.48765        0.86693
O         -0.25045        1.47327       -0.08771
C         -1.30651        0.62255        0.00295
C         -1.28180       -0.60425        0.67293
C         -2.42649       -1.40253        0.68862
C         -3.58951       -1.00148        0.03696
C         -3.60210        0.21846       -0.64176
C         -2.47252        1.02868       -0.65665
H          2.92470        1.34225        0.97764
H          2.29072        1.75097       -0.64553
H          0.55510        0.83573        1.72602
H          0.85195        2.52056        1.25199
H         -0.37119       -0.96225        1.15390
H         -2.39549       -2.36104        1.21172
H         -4.47785       -1.63559        0.05167
H         -4.50489        0.54746       -1.16143
H         -2.46628        1.98871       -1.17554
