29
mol542_conf-6
C          4.46998        1.60558        0.14935
C          3.90290        0.18977        0.11920
C          4.22264       -0.54676        1.41924
C          4.41157       -0.56856       -1.10617
O          2.47381        0.41032        0.01027
C          1.60355       -0.60966       -0.03959
O          1.86845       -1.79079       -0.01532
N          0.33850       -0.12578       -0.11963
C         -0.88646       -0.84075       -0.42642
C         -1.56866        0.53224       -0.66883
C         -2.62714        0.93071        0.33340
Br        -4.24149       -0.14092        0.14719
C         -0.18295        1.19390       -0.41915
H          4.20278        2.14750       -0.76951
H          4.06974        2.16246        1.00897
H          5.56600        1.57478        0.23137
H          3.80490       -0.00060        2.27832
H          3.80653       -1.56154        1.40654
H          5.31307       -0.61044        1.54985
H          5.50920       -0.63348       -1.07197
H          4.12786       -0.03704       -2.02705
H          3.99669       -1.58344       -1.13886
H         -1.29558       -1.43033        0.41006
H         -0.81201       -1.49177       -1.31178
H         -1.94292        0.66587       -1.69277
H         -2.93299        1.97695        0.20427
H         -2.27634        0.78562        1.36434
H          0.27155        1.66749       -1.30433
H         -0.13653        1.90573        0.42230
