29
mol542_conf-9
C         -4.15945        0.49001       -0.35468
C         -3.11730       -0.48407        0.19305
C         -2.85293       -1.64015       -0.77084
C         -3.53915       -1.01051        1.56127
O         -1.88083        0.21667        0.47766
C         -1.17553        0.82372       -0.48722
O         -1.46496        0.89490       -1.66060
N         -0.05250        1.37651        0.04353
C          0.65189        1.07069        1.27950
C          1.95776        1.55770        0.59986
C          3.13300        0.60416        0.53674
Br         2.69448       -1.15016       -0.19607
C          1.12982        1.79331       -0.69066
H         -4.29420        1.33260        0.34008
H         -3.85266        0.88113       -1.33239
H         -5.12589       -0.02432       -0.46311
H         -2.54170       -1.26686       -1.75416
H         -2.06248       -2.29359       -0.37190
H         -3.76766       -2.23949       -0.89036
H         -2.76907       -1.68064        1.97025
H         -4.48253       -1.56945        1.47964
H         -3.68418       -0.17858        2.26562
H          0.63830        0.00079        1.54289
H          0.31889        1.65955        2.14817
H          2.33250        2.49713        1.03519
H          3.54373        0.41561        1.53707
H          3.93129        1.00330       -0.10221
H          1.09644        2.83290       -1.05143
H          1.37756        1.12826       -1.53413
