29
mol542_conf-12
C         -3.53868       -1.01042       -1.56131
C         -3.11679       -0.48410       -0.19306
C         -2.85188       -1.64027        0.77057
C         -4.15921        0.48952        0.35500
O         -1.88060        0.21708       -0.47773
C         -1.17530        0.82410        0.48720
O         -1.46469        0.89511        1.66060
N         -0.05237        1.37705       -0.04358
C          1.13002        1.79373        0.69061
C          1.95797        1.55777       -0.59983
C          3.13287        0.60381       -0.53658
Br         2.69366       -1.15047        0.19608
C          0.65201        1.07118       -1.27957
H         -4.48188       -1.56966       -1.47966
H         -3.68406       -0.17840       -2.26548
H         -2.76845       -1.68024       -1.97053
H         -2.54063       -1.26705        1.75391
H         -3.76637       -2.23997        0.89013
H         -2.06123       -2.29332        0.37138
H         -5.12545       -0.02519        0.46345
H         -4.29435        1.33220       -0.33957
H         -3.85243        0.88056        1.33274
H          1.37757        1.12874        1.53419
H          1.09680        2.83337        1.05124
H          2.33307        2.49706       -1.03516
H          3.93122        1.00262        0.10250
H          3.54368        0.41516       -1.53686
H          0.31917        1.66022       -2.14818
H          0.63815        0.00131       -1.54304
