29
mol542_conf-11
C          2.85090       -1.64031        0.77028
C          3.11633       -0.48404       -0.19308
C          3.53822       -1.01025       -1.56137
C          4.15896        0.48915        0.35532
O          1.88043        0.21765       -0.47780
C          1.17499        0.82437        0.48719
O          1.46427        0.89516        1.66065
N          0.05208        1.37739       -0.04356
C         -0.65221        1.07174       -1.27964
C         -1.95830        1.55785       -0.59976
C         -3.13280        0.60339       -0.53640
Br        -2.69272       -1.15077        0.19605
C         -1.13031        1.79398        0.69064
H          2.53975       -1.26723        1.75370
H          2.06000       -2.29296        0.37090
H          3.76514       -2.24042        0.88970
H          2.76789       -1.67983       -1.97077
H          3.68386       -0.17815       -2.26540
H          4.48129       -1.56971       -1.47972
H          4.29457        1.33185       -0.33913
H          5.12501       -0.02588        0.46399
H          3.85205        0.88018        1.33303
H         -0.63809        0.00198       -1.54351
H         -0.31952        1.66117       -2.14804
H         -2.33382        2.49701       -1.03500
H         -3.54370        0.41464       -1.53662
H         -3.93120        1.00182        0.10285
H         -1.09720        2.83367        1.05118
H         -1.37776        1.12906        1.53430
