29
mol542_conf-7
C          4.46982        1.60565        0.14923
C          3.90280        0.18982        0.11901
C          4.22308       -0.54695        1.41880
C          4.41113       -0.56823       -1.10669
O          2.47372        0.41030        0.01063
C          1.60348       -0.60976       -0.03917
O          1.86851       -1.79086       -0.01525
N          0.33839       -0.12590       -0.11868
C         -0.88647       -0.84079       -0.42615
C         -1.56854        0.53221       -0.66870
C         -2.62715        0.93072        0.33339
Br        -4.24144       -0.14088        0.14700
C         -0.18285        1.19377       -0.41874
H          4.20228        2.14775       -0.76943
H          4.06983        2.16233        1.00910
H          5.56587        1.57489        0.23087
H          3.80571       -0.00094        2.27816
H          3.80694       -1.56172        1.40607
H          5.31356       -0.61069        1.54894
H          5.50878       -0.63296       -1.07292
H          4.12697       -0.03659       -2.02738
H          3.99640       -1.58318       -1.13942
H         -1.29598       -1.43049        0.41004
H         -0.81159       -1.49164       -1.31160
H         -1.94263        0.66588       -1.69270
H         -2.93300        1.97695        0.20421
H         -2.27647        0.78563        1.36437
H          0.27198        1.66698       -1.30395
H         -0.13661        1.90585        0.42250
