29
mol542_conf-5
C         -4.47000        1.60557        0.14935
C         -3.90291        0.18977        0.11902
C         -4.41124       -0.56825       -1.10669
C         -4.22301       -0.54710        1.41879
O         -2.47380        0.41035        0.01060
C         -1.60353       -0.60963       -0.03923
O         -1.86847       -1.79077       -0.01541
N         -0.33842       -0.12575       -0.11863
C          0.18293        1.19386       -0.41875
C          1.56855        0.53216       -0.66869
C          2.62720        0.93069        0.33336
Br         4.24153       -0.14091        0.14699
C          0.88638       -0.84078       -0.42601
H         -4.06997        2.16227        1.00918
H         -4.20259        2.14769       -0.76934
H         -5.56605        1.57476        0.23109
H         -4.12728       -0.03647       -2.02736
H         -3.99634       -1.58311       -1.13957
H         -5.50887       -0.63313       -1.07279
H         -3.80672       -1.56181        1.40599
H         -5.31348       -0.61102        1.54902
H         -3.80566       -0.00106        2.27814
H          0.13673        1.90600        0.42244
H         -0.27185        1.66711       -1.30398
H          1.94266        0.66574       -1.69270
H          2.27658        0.78566        1.36437
H          2.93304        1.97693        0.20411
H          0.81147       -1.49172       -1.31140
H          1.29585       -1.43045        0.41023
