29
mol542_conf-1
C         -3.62621       -2.15666       -0.39408
C         -3.54826       -0.69912        0.04900
C         -3.80351       -0.57771        1.55077
C         -4.51094        0.16420       -0.76509
O         -2.17715       -0.33658       -0.25374
C         -1.70111        0.89285       -0.01154
O         -2.30436        1.82175        0.47911
N         -0.40424        0.96695       -0.40328
C          0.55656        2.01137       -0.11489
C          1.68314        1.01776       -0.52186
C          2.69212        0.73060        0.56446
Br         3.87756       -0.73599        0.07901
C          0.57840       -0.04939       -0.74040
H         -4.63473       -2.55571       -0.21348
H         -3.40071       -2.24553       -1.46663
H         -2.90229       -2.76830        0.16370
H         -4.80729       -0.96036        1.78770
H         -3.06793       -1.17455        2.11090
H         -3.73600        0.46765        1.87601
H         -5.54142       -0.19165       -0.61793
H         -4.27231        0.09233       -1.83684
H         -4.45098        1.21521       -0.45706
H          0.56690        2.32715        0.94300
H          0.46048        2.90809       -0.74639
H          2.19447        1.30476       -1.45089
H          2.20076        0.43240        1.50067
H          3.33475        1.59854        0.76073
H          0.49099       -0.44734       -1.76257
H          0.61131       -0.89650       -0.03447
