29
mol542_conf-4
C         -4.36945        0.06085       -1.09333
C         -3.62823       -0.66425        0.02920
C         -3.70291       -2.17538       -0.16521
C         -4.15590       -0.27123        1.40833
O         -2.20643       -0.39189       -0.05593
C         -1.71521        0.84842        0.07591
O         -2.34822        1.86511        0.25764
N         -0.36238        0.81712       -0.01985
C          0.55309        1.93026       -0.15952
C          1.65649        0.90616       -0.55452
C          2.78153        0.80100        0.44875
Br         3.96584       -0.69378        0.05568
C          0.57122       -0.19978       -0.47326
H         -4.30946        1.14839       -0.96406
H         -3.93735       -0.20718       -2.06926
H         -5.42763       -0.23989       -1.09257
H         -3.28366       -2.45949       -1.14132
H         -3.13349       -2.69326        0.62007
H         -4.74830       -2.51329       -0.12122
H         -3.57370       -0.77358        2.19539
H         -5.20610       -0.58399        1.50538
H         -4.09338        0.81374        1.55708
H          0.73262        2.49353        0.77171
H          0.27268        2.64369       -0.95136
H          2.05888        1.05818       -1.56513
H          2.39764        0.63303        1.46427
H          3.40866        1.70177        0.44890
H          0.29996       -0.65966       -1.43661
H          0.76827       -1.00159        0.25688
