17
mol500_conf-1
C          1.32434       -0.93211        1.25737
C          1.32434       -0.05524        0.00000
C          2.57868        0.83583        0.00000
C          1.32434       -0.93211       -1.25737
C          0.12638        0.90443        0.00000
Br        -1.62943        0.05013        0.00000
H          2.21866       -1.57376        1.27662
H          1.32957       -0.31710        2.17139
H          0.43782       -1.58211        1.29086
H          2.61411        1.48172       -0.89151
H          3.48732        0.21453        0.00000
H          2.61411        1.48172        0.89151
H          2.21866       -1.57376       -1.27662
H          0.43782       -1.58211       -1.29086
H          1.32957       -0.31710       -2.17139
H          0.13700        1.54434        0.89244
H          0.13700        1.54434       -0.89244
