29
mol542_conf-2
C          4.51100        0.16438       -0.76457
C          3.54810       -0.69917        0.04901
C          3.80294       -0.57819        1.55088
C          3.62614       -2.15658       -0.39447
O          2.17708       -0.33651       -0.25399
C          1.70107        0.89290       -0.01162
O          2.30427        1.82163        0.47940
N          0.40430        0.96718       -0.40366
C         -0.57838       -0.04917       -0.74065
C         -1.68312        1.01790       -0.52180
C         -2.69199        0.73053        0.56457
Br        -3.87740       -0.73604        0.07902
C         -0.55652        2.01147       -0.11483
H          4.27268        0.09280       -1.83641
H          4.45093        1.21531       -0.45627
H          5.54144       -0.19150       -0.61722
H          3.73535        0.46708        1.87640
H          3.06722       -1.17520        2.11064
H          4.80667       -0.96091        1.78797
H          2.90207       -2.76837        0.16295
H          4.63461       -2.55570       -0.21372
H          3.40091       -2.24515       -1.46711
H         -0.61109       -0.89632       -0.03475
H         -0.49117       -0.44708       -1.76285
H         -2.19456        1.30502       -1.45074
H         -3.33464        1.59841        0.76102
H         -2.20053        0.43222        1.50069
H         -0.46063        2.90835       -0.74613
H         -0.56664        2.32700        0.94313
