29
mol542_conf-8
C         -4.41151       -0.56844       -1.10630
C         -3.90289        0.18976        0.11918
C         -4.22271       -0.54690        1.41913
C         -4.46998        1.60556        0.14945
O         -2.47382        0.41033        0.01034
C         -1.60352       -0.60965       -0.03952
O         -1.86844       -1.79078       -0.01536
N         -0.33846       -0.12576       -0.11939
C          0.18296        1.19390       -0.41911
C          1.56864        0.53224       -0.66885
C          2.62714        0.93070        0.33338
Br         4.24148       -0.14092        0.14718
C          0.88645       -0.84073       -0.42642
H         -4.12775       -0.03682       -2.02711
H         -3.99663       -1.58332       -1.13907
H         -5.50914       -0.63336       -1.07216
H         -3.80663       -1.56169        1.40634
H         -3.80499       -0.00084        2.27828
H         -5.31315       -0.61055        1.54969
H         -4.06977        2.16236        1.00913
H         -5.56601        1.57476        0.23142
H         -4.20275        2.14758       -0.76936
H          0.13657        1.90584        0.42224
H         -0.27162        1.66735       -1.30434
H          1.94291        0.66590       -1.69279
H          2.27635        0.78560        1.36433
H          2.93300        1.97694        0.20426
H          0.81183       -1.49168       -1.31182
H          1.29569       -1.43038        0.40995
