29
mol542_conf-10
C          3.53929       -1.00973        1.56141
C          3.11718       -0.48386        0.19308
C          2.85331       -1.64031       -0.77049
C          4.15892        0.49055       -0.35489
O          1.88033        0.21627        0.47755
C          1.17508        0.82340       -0.48732
O          1.46443        0.89448       -1.66073
N          0.05216        1.37633        0.04348
C         -1.12998        1.79335       -0.69086
C         -1.95810        1.55792        0.59960
C         -3.13304        0.60397        0.53641
Br        -2.69387       -1.15038       -0.19591
C         -0.65228        1.07122        1.27957
H          3.68417       -0.17752        2.26547
H          2.76942       -1.67992        1.97067
H          4.48281       -1.56845        1.47987
H          2.06330       -2.29410       -0.37123
H          2.54165       -1.26734       -1.75380
H          3.76836       -2.23915       -0.89013
H          3.85212        0.88115       -1.33279
H          5.12565       -0.02335       -0.46290
H          4.29312        1.33348        0.33957
H         -1.37775        1.12835       -1.53435
H         -1.09631        2.83293       -1.05165
H         -2.33325        2.49729        1.03468
H         -3.93133        1.00273       -0.10279
H         -3.54394        0.41552        1.53670
H         -0.31929        1.66065        2.14786
H         -0.63874        0.00148        1.54361
