29
mol542_conf-3
C          4.36895        0.06042       -1.09394
C          3.62820       -0.66425        0.02916
C          4.15643       -0.27067        1.40792
C          3.70283       -2.17545       -0.16467
O          2.20636       -0.39194       -0.05554
C          1.71519        0.84840        0.07607
O          2.34823        1.86513        0.25736
N          0.36231        0.81710       -0.01930
C         -0.57115       -0.19982       -0.47299
C         -1.65643        0.90611       -0.55452
C         -2.78157        0.80105        0.44865
Br        -3.96582       -0.69378        0.05564
C         -0.55307        1.93026       -0.15952
H          3.93653       -0.20805       -2.06960
H          4.30891        1.14802       -0.96511
H          5.42716       -0.24021       -1.09342
H          4.09410        0.81438        1.55621
H          3.57446       -0.77260        2.19542
H          5.20662       -0.58351        1.50470
H          3.13379       -2.69304        0.62108
H          4.74826       -2.51331       -0.12101
H          3.28316       -2.45997       -1.14048
H         -0.76835       -1.00170        0.25702
H         -0.29959       -0.65961       -1.43631
H         -2.05875        1.05799       -1.56518
H         -3.40870        1.70182        0.44864
H         -2.39778        0.63319        1.46423
H         -0.27239        2.64341       -0.95152
H         -0.73277        2.49384        0.77149
