33
mol608_clust-13
C         -0.92671       -1.45821       -1.36151
C         -2.11571       -0.66781       -0.79382
C         -3.22144       -1.64962       -0.36814
C         -2.67912        0.26603       -1.87794
Si        -1.55073        0.31619        0.74352
C         -1.29558       -0.80810        2.21322
C         -2.78470        1.67629        1.14163
O         -0.03698        0.99382        0.49467
C          0.40703        1.88504       -0.47749
C          1.92792        1.93996       -0.49733
C          2.62771        0.68284       -0.99119
Br         2.67600       -0.79349        0.28196
H         -0.47106       -2.12052       -0.60895
H         -1.25083       -2.08794       -2.20900
H         -0.12906       -0.79325       -1.72668
H         -4.08024       -1.13369        0.09304
H         -2.85292       -2.39720        0.35139
H         -3.60508       -2.19918       -1.24585
H         -3.56685        0.81531       -1.52658
H         -2.98411       -0.31658       -2.76537
H         -1.94144        1.01066       -2.21714
H         -2.24383       -1.23445        2.57467
H         -0.83563       -0.24165        3.03728
H         -0.61530       -1.63487        1.95793
H         -2.83628        2.42786        0.33821
H         -3.79848        1.26785        1.28087
H         -2.49857        2.19356        2.07066
H          0.05037        1.59611       -1.48672
H          0.01714        2.90350       -0.28453
H          2.22374        2.75546       -1.18045
H          2.29876        2.21199        0.50338
H          2.14866        0.28595       -1.89704
H          3.68070        0.88769       -1.21902
