33
mol608_clust-3
C         -3.31160        0.30252       -1.50185
C         -2.92463        0.10645       -0.02765
C         -3.84070       -0.94915        0.61101
C         -3.09105        1.43980        0.71873
Si        -1.10819       -0.46864        0.06131
C         -0.85149       -2.05936       -0.88243
C         -0.55698       -0.65473        1.84896
O         -0.13977        0.66623       -0.71341
C          0.31532        1.89225       -0.23049
C          1.82665        2.03660       -0.36078
C          2.65959        1.14327        0.54629
Br         2.88413       -0.68927       -0.08681
H         -3.26476       -0.64206       -2.06682
H         -4.34464        0.68428       -1.58520
H         -2.64440        1.02264       -2.00127
H         -3.76240       -1.92441        0.10424
H         -4.89706       -0.63285        0.54853
H         -3.61040       -1.10517        1.67743
H         -4.14188        1.77729        0.67614
H         -2.47642        2.23878        0.27460
H         -2.81911        1.35610        1.78345
H         -1.08533       -1.92782       -1.94956
H         -1.48127       -2.87166       -0.48777
H          0.20160       -2.36814       -0.80348
H          0.48929       -0.99716        1.88233
H         -0.63224        0.28486        2.41825
H         -1.17289       -1.40526        2.36915
H         -0.16227        2.71144       -0.79942
H          0.03492        2.04602        0.83134
H          2.12383        1.89423       -1.41153
H          2.07997        3.07890       -0.09823
H          3.68260        1.52550        0.64377
H          2.22020        1.06422        1.55048
