33
mol608_clust-14
C          3.27256        1.79814        0.64702
C          1.97942        1.23858        0.02737
C          1.85178        1.74743       -1.41735
C          0.78196        1.73399        0.85567
Si         2.08876       -0.66716        0.03119
C          2.03074       -1.33210        1.78973
C          3.65916       -1.26170       -0.79366
O          0.86543       -1.35459       -0.89184
C         -0.50105       -1.08712       -0.97325
C         -1.25635       -1.45531        0.30060
C         -2.76093       -1.29914        0.19755
Br        -3.32234        0.56304       -0.00082
H          3.23621        2.90139        0.67543
H          3.41938        1.45129        1.68295
H          4.16533        1.51527        0.06723
H          2.70328        1.43119       -2.04064
H          1.82296        2.85117       -1.43578
H          0.93339        1.38493       -1.90399
H         -0.18534        1.39808        0.45107
H          0.75729        2.83805        0.86714
H          0.84086        1.40095        1.90424
H          2.91161       -0.99806        2.36101
H          2.04103       -2.43336        1.77367
H          1.13412       -1.01171        2.34099
H          3.63735       -2.35878       -0.88348
H          3.76518       -0.84595       -1.80707
H          4.55192       -0.98614       -0.21146
H         -0.69012       -0.02614       -1.21899
H         -0.90786       -1.67786       -1.81282
H         -1.04361       -2.51181        0.53811
H         -0.88352       -0.85867        1.14861
H         -3.17166       -1.82907       -0.67229
H         -3.26576       -1.66091        1.10078
