33
mol608_clust-4
C         -3.51744       -1.30112        0.53052
C         -2.71950       -0.57402       -0.56352
C         -3.69980        0.13810       -1.51268
C         -1.90562       -1.59671       -1.37351
Si        -1.58716        0.74117        0.23173
C         -2.58958        2.09516        1.04403
C         -0.44976        1.50499       -1.05661
O         -0.69186        0.09030        1.49828
C          0.05436       -1.08490        1.61394
C          1.25673       -1.14401        0.67304
C          2.19798        0.02684        0.88427
Br         3.60854        0.08260       -0.45541
H         -4.13931       -0.60501        1.11530
H         -4.19497       -2.04870        0.08158
H         -2.86197       -1.83096        1.23887
H         -4.33995        0.85933       -0.98067
H         -3.17779        0.68030       -2.31770
H         -4.36659       -0.59779       -1.99547
H         -1.30683       -1.11641       -2.16381
H         -2.58031       -2.31793       -1.86771
H         -1.21927       -2.18108       -0.74147
H         -3.13083        2.69900        0.29947
H         -1.91939        2.76651        1.60279
H         -3.32178        1.68585        1.75625
H          0.26032        0.78734       -1.49479
H          0.13685        2.32322       -0.60923
H         -1.03795        1.93804       -1.88151
H          0.40205       -1.15081        2.65944
H         -0.57508       -1.97731        1.43739
H          1.79110       -2.09386        0.83449
H          0.90796       -1.15582       -0.37204
H          1.66735        0.98264        0.81065
H          2.69842       -0.02226        1.86012
