33
mol608_clust-12
C         -3.22668       -0.90902       -1.67129
C         -2.68809       -1.05734       -0.23915
C         -1.61089       -2.15380       -0.21331
C         -3.83637       -1.43606        0.70952
Si        -1.91623        0.58355        0.31127
C         -1.25421        0.49419        2.06861
C         -3.11198        2.02330        0.17226
O         -0.63435        0.81286       -0.75290
C          0.32898        1.82720       -0.69640
C          1.72690        1.23971       -0.85168
C          2.03804        0.25066        0.25638
Br         3.81875       -0.51563        0.08647
H         -3.63687       -1.86965       -2.02908
H         -4.03716       -0.16493       -1.73041
H         -2.43278       -0.60097       -2.36912
H         -0.77360       -1.90753       -0.88416
H         -2.03514       -3.11811       -0.54347
H         -1.20167       -2.30720        0.79850
H         -3.48673       -1.57949        1.74472
H         -4.30341       -2.38350        0.38853
H         -4.62972       -0.67097        0.72474
H         -0.73309        1.42450        2.34601
H         -0.54668       -0.33951        2.19525
H         -2.07532        0.35480        2.78948
H         -2.62420        2.96357        0.47550
H         -3.46880        2.14756       -0.86145
H         -3.98923        1.88148        0.82311
H          0.15175        2.55719       -1.50621
H          0.27256        2.39133        0.25675
H          1.79704        0.73470       -1.82771
H          2.46566        2.05691       -0.85058
H          2.00172        0.72376        1.24715
H          1.33747       -0.59272        0.24160
