33
mol608_clust-10
C          3.31309       -1.45174       -1.35906
C          3.35502       -0.66407       -0.03934
C          4.67642        0.11409        0.05731
C          3.24456       -1.64364        1.13976
Si         1.88367        0.53304        0.01041
C          1.93625        1.73299       -1.43359
C          1.80656        1.49134        1.62594
O          0.52538       -0.44840       -0.11677
C         -0.74857       -0.24343        0.41811
C         -1.53441        0.81919       -0.34490
C         -2.93886        1.05764        0.17642
Br        -4.12049       -0.47983       -0.05398
H          4.13309       -2.19058       -1.39211
H          2.36288       -1.99618       -1.47137
H          3.43096       -0.79306       -2.23451
H          4.80339        0.82010       -0.77921
H          5.53425       -0.58050        0.03007
H          4.75168        0.68693        0.99601
H          3.31034       -1.12718        2.11113
H          4.06469       -2.38211        1.10563
H          2.29245       -2.19549        1.11357
H          1.10356        2.45175       -1.38409
H          1.85979        1.19765       -2.39233
H          2.87392        2.31108       -1.43936
H          0.94508        2.17800        1.64313
H          1.72141        0.82008        2.49447
H          2.71371        2.10183        1.75827
H         -1.29190       -1.20065        0.37450
H         -0.69397        0.04307        1.48773
H         -1.00153        1.78438       -0.27295
H         -1.56028        0.55181       -1.41308
H         -2.94422        1.27965        1.25223
H         -3.42704        1.88375       -0.35374
