33
mol608_clust-5
C          3.56473        1.57427        0.72448
C          3.35596        0.45090       -0.30368
C          4.60737       -0.43970       -0.35711
C          3.10215        1.06938       -1.68785
Si         1.84960       -0.58435        0.20153
C          2.03757       -1.31863        1.92014
C          1.48926       -1.95599       -1.02903
O          0.57320        0.51267        0.20441
C         -0.74505        0.21116        0.56341
C         -1.65244        1.34961        0.12305
C         -3.09899        1.20762        0.55195
Br        -4.00236       -0.31931       -0.26936
H          4.41405        2.21454        0.42774
H          2.67204        2.21306        0.80657
H          3.78943        1.17679        1.72737
H          4.83139       -0.89751        0.62013
H          5.49044        0.15563       -0.64839
H          4.50518       -1.25250       -1.09431
H          2.98288        0.29889       -2.46647
H          3.95258        1.70768       -1.98566
H          2.19473        1.69244       -1.68827
H          2.17755       -0.53398        2.67943
H          2.90125       -2.00034        1.97026
H          1.14359       -1.90043        2.19617
H          0.59631       -2.52890       -0.73273
H          1.31079       -1.55279       -2.03748
H          2.32957       -2.66571       -1.08764
H         -1.08696       -0.73228        0.09735
H         -0.83181        0.07577        1.66045
H         -1.26569        2.28426        0.56390
H         -1.58448        1.46351       -0.97010
H         -3.19411        1.06010        1.63615
H         -3.68961        2.08517        0.26425
