33
mol608_clust-9
C         -1.88668        2.11789        0.67232
C         -2.74074        1.12782       -0.13592
C         -2.61936        1.45622       -1.63278
C         -4.21026        1.23846        0.30069
Si        -2.11247       -0.63454        0.16738
C         -3.06200       -1.91110       -0.82940
C         -2.15679       -1.09840        1.98703
O         -0.51189       -0.60151       -0.35363
C          0.37406       -1.68533       -0.34764
C          1.78565       -1.19647       -0.64216
C          2.24903       -0.18949        0.39413
Br         4.04404        0.46959        0.02978
H         -0.82385        2.05423        0.39260
H         -1.96286        1.93833        1.75680
H         -2.22095        3.15373        0.48727
H         -2.94453        2.49343       -1.82631
H         -1.58025        1.35679       -1.98206
H         -3.24842        0.79544       -2.25071
H         -4.86196        0.55104       -0.26267
H         -4.58662        2.26143        0.12563
H         -4.34057        1.02297        1.37366
H         -2.99759       -1.70606       -1.90898
H         -4.12666       -1.92535       -0.54749
H         -2.66206       -2.92241       -0.65314
H         -1.78478       -2.12310        2.14537
H         -3.18541       -1.06011        2.37919
H         -1.53727       -0.41664        2.58969
H          0.36058       -2.20408        0.63268
H          0.08653       -2.43428       -1.10976
H          2.46958       -2.05951       -0.66709
H          1.80344       -0.73348       -1.64109
H          2.28275       -0.62743        1.40081
H          1.59175        0.68739        0.41117
