33
mol608_clust-2
C         -1.95491       -1.44766       -1.54355
C         -2.70983       -0.54379       -0.55565
C         -3.72332       -1.38161        0.23986
C         -3.44725        0.55572       -1.33647
Si        -1.46526        0.25467        0.63247
C         -0.54220       -1.02351        1.64851
C         -2.27465        1.50390        1.77691
O         -0.38685        1.05233       -0.38513
C          0.73703        1.78425        0.01792
C          1.83656        1.64198       -1.02383
C          2.25197        0.20730       -1.28696
Br         3.11441       -0.63276        0.25330
H         -2.66020       -1.92037       -2.24959
H         -1.22465       -0.87196       -2.13278
H         -1.41258       -2.25793       -1.03007
H         -3.23729       -2.20186        0.79227
H         -4.46288       -1.83891       -0.44060
H         -4.28376       -0.77163        0.96712
H         -4.04529        1.20037       -0.67253
H         -4.14056        0.10820       -2.07029
H         -2.74263        1.19843       -1.88665
H         -0.02043       -1.75053        1.00783
H         -1.23206       -1.57429        2.30754
H          0.21845       -0.54810        2.28753
H         -1.52400        1.96416        2.43926
H         -2.76407        2.31040        1.20985
H         -3.03259        1.02780        2.41890
H          0.47934        2.85338        0.12932
H          1.11920        1.43871        0.99797
H          1.46320        2.04654       -1.98041
H          2.70772        2.24885       -0.73020
H          1.37979       -0.41569       -1.51954
H          2.97905        0.13737       -2.10434
