33
mol608_clust-7
C         -1.85179        1.74743       -1.41734
C         -1.97942        1.23858        0.02738
C         -3.27256        1.79813        0.64703
C         -0.78196        1.73399        0.85567
Si        -2.08876       -0.66716        0.03119
C         -3.65917       -1.26170       -0.79366
C         -2.03073       -1.33211        1.78972
O         -0.86543       -1.35458       -0.89186
C          0.50105       -1.08712       -0.97325
C          1.25634       -1.45530        0.30061
C          2.76092       -1.29914        0.19757
Br         3.32234        0.56304       -0.00082
H         -2.70329        1.43120       -2.04063
H         -1.82296        2.85117       -1.43577
H         -0.93341        1.38493       -1.90399
H         -4.16533        1.51526        0.06725
H         -3.23622        2.90139        0.67544
H         -3.41937        1.45128        1.68297
H         -0.75729        2.83805        0.86715
H          0.18533        1.39809        0.45106
H         -0.84085        1.40095        1.90424
H         -4.55191       -0.98618       -0.21143
H         -3.63732       -2.35878       -0.88352
H         -3.76521       -0.84592       -1.80705
H         -2.91159       -0.99807        2.36101
H         -2.04102       -2.43337        1.77366
H         -1.13411       -1.01173        2.34098
H          0.69014       -0.02614       -1.21901
H          0.90787       -1.67788       -1.81281
H          0.88350       -0.85863        1.14861
H          1.04359       -2.51179        0.53814
H          3.17166       -1.82908       -0.67226
H          3.26574       -1.66090        1.10081
