33
mol608_clust-6
C          2.67943        0.26718       -1.87759
C          2.11610       -0.66725       -0.79393
C          3.22203       -1.64897       -0.36853
C          0.92740       -1.45778       -1.36211
Si         1.55051        0.31598        0.74362
C          2.78449        1.67561        1.14330
C          1.29434       -0.80907        2.21255
O          0.03713        0.99403        0.49433
C         -0.40743        1.88495       -0.47783
C         -1.92834        1.94016       -0.49645
C         -2.62862        0.68339       -0.99053
Br        -2.67561       -0.79385        0.28162
H          3.56663        0.81694       -1.52566
H          2.98521       -0.31505       -2.76499
H          1.94145        1.01141       -2.21700
H          4.08062       -1.13304        0.09305
H          3.60595       -2.19804       -1.24641
H          2.85359       -2.39697        0.35059
H          1.25169       -2.08652       -2.21026
H          0.12921       -0.79300       -1.72647
H          0.47235       -2.12104       -0.61004
H          2.83647        2.42780        0.34049
H          3.79819        1.26702        1.28269
H          2.49795        2.19219        2.07258
H          0.83647       -0.24244        3.03763
H          0.61208       -1.63417        1.95715
H          2.24207       -1.23772        2.57263
H         -0.01708        2.90335       -0.28555
H         -0.05168        1.59552       -1.48722
H         -2.29831        2.21163        0.50472
H         -2.22462        2.75607       -1.17887
H         -3.68184        0.88835       -1.21717
H         -2.15044        0.28715       -1.89712
