33
mol608_clust-1
C          3.91374       -1.48507        0.38526
C          3.58188       -0.11533       -0.22755
C          3.70565       -0.20014       -1.75763
C          4.55721        0.94224        0.31239
Si         1.79830        0.35033        0.22302
C          1.31564        2.00279       -0.52455
C          1.52519        0.38863        2.08212
O          0.85652       -0.87381       -0.44719
C         -0.36981       -1.36132        0.00481
C         -1.51459       -0.37335       -0.22208
C         -2.85567       -0.97250        0.15651
Br        -4.32006        0.28534       -0.08792
H          4.93205       -1.80006        0.09727
H          3.87806       -1.46239        1.48652
H          3.21114       -2.25884        0.03955
H          2.99669       -0.93001       -2.17785
H          4.72491       -0.51380       -2.04415
H          3.51504        0.77219       -2.23960
H          4.36477        1.93941       -0.11521
H          5.59669        0.67290        0.05556
H          4.50598        1.03075        1.40988
H          1.36211        1.96663       -1.62366
H          1.98556        2.80690       -0.18101
H          0.28879        2.28181       -0.24211
H          0.48513        0.65647        2.32771
H          1.74385       -0.58498        2.54741
H          2.17598        1.14184        2.55356
H         -0.58006       -2.29729       -0.54103
H         -0.32227       -1.62774        1.07972
H         -1.34085        0.53875        0.37200
H         -1.51758       -0.07097       -1.28085
H         -3.10058       -1.84736       -0.46003
H         -2.88722       -1.27108        1.21287
