33
mol608_clust-8
C         -3.49528       -1.49294        0.01608
C         -1.99302       -1.17572       -0.05460
C         -1.41726       -1.68009       -1.38773
C         -1.26292       -1.86790        1.10779
Si        -1.72894        0.69611        0.06723
C         -2.13134        1.36035        1.77863
C         -2.72511        1.63515       -1.21921
O         -0.09055        0.91741       -0.23646
C          0.62607        2.10501       -0.10658
C          2.08785        1.90240       -0.47659
C          2.86308        0.94095        0.41286
Br         2.62095       -0.94548       -0.01680
H         -3.65861       -2.58407       -0.02556
H         -3.95241       -1.13181        0.95230
H         -4.05180       -1.04730       -0.82415
H         -1.91940       -1.21833       -2.25357
H         -1.55365       -2.77254       -1.47388
H         -0.34120       -1.46328       -1.46430
H         -0.18725       -1.63281        1.10442
H         -1.36662       -2.96423        1.02537
H         -1.67625       -1.57360        2.08614
H         -3.16525        1.11089        2.06562
H         -2.03624        2.45731        1.81421
H         -1.45727        0.93519        2.53823
H         -2.48185        2.70952       -1.19797
H         -2.51804        1.26278       -2.23421
H         -3.80655        1.53899       -1.03373
H          0.20892        2.89879       -0.75777
H          0.56918        2.48762        0.93367
H          2.16677        1.58777       -1.52901
H          2.58535        2.88502       -0.40120
H          3.94302        1.10706        0.32074
H          2.58291        1.05091        1.46932
