33
mol608_clust-11
C          4.74411       -0.50585        0.07945
C          3.25025       -0.83385       -0.07915
C          2.83521       -1.82150        1.02388
C          3.00786       -1.47428       -1.45487
Si         2.23313        0.77470        0.04448
C          2.88707        2.08743       -1.11293
C          2.19869        1.40875        1.81269
O          0.65803        0.50031       -0.47801
C         -0.30800       -0.30960        0.12209
C         -1.69667        0.21298       -0.22781
C         -2.78924       -0.65766        0.36285
Br        -4.56980       -0.00497       -0.07285
H          4.96162       -0.02124        1.04561
H          5.34793       -1.42940        0.03568
H          5.10672        0.15994       -0.71957
H          3.01974       -1.41579        2.03126
H          1.76935       -2.09255        0.96183
H          3.41336       -2.75853        0.93773
H          1.94561       -1.72036       -1.60830
H          3.58857       -2.40816       -1.55546
H          3.31307       -0.80786       -2.27737
H          3.88764        2.42980       -0.80686
H          2.21338        2.95792       -1.11163
H          2.95225        1.71508       -2.14647
H          1.70822        0.70321        2.50106
H          1.65609        2.36549        1.86547
H          3.22024        1.57964        2.18798
H         -0.20683       -1.35534       -0.23066
H         -0.19106       -0.33670        1.22435
H         -1.79125        1.24585        0.14118
H         -1.79129        0.25297       -1.32370
H         -2.74373       -1.68676       -0.01774
H         -2.74045       -0.69009        1.45953
