38
mol921_clust-2
C          0.23426        2.61756        1.82099
C         -0.00186        2.54083        0.31493
C          0.91147        1.55028       -0.40817
C          2.38463        1.95956       -0.46432
C          3.30529        0.96566       -1.18927
C          3.95509       -0.10414       -0.30231
C          3.01278       -1.04442        0.45221
C          2.16894       -1.94911       -0.44547
C          1.20448       -2.86323        0.31727
C          0.03889       -2.14447        1.00442
C         -0.99787       -1.58413        0.02793
C         -2.00025       -0.69224        0.73488
Br        -3.27945        0.10824       -0.49723
H          1.24329        2.98471        2.06318
H         -0.48636        3.29273        2.30591
H          0.12686        1.62453        2.28961
H          0.12014        3.54365       -0.13036
H         -1.05017        2.25552        0.12525
H          0.81530        0.56653        0.07758
H          0.54633        1.41135       -1.44049
H          2.77168        2.12767        0.55625
H          2.44127        2.93993       -0.96734
H          2.75050        0.49109       -2.01755
H          4.12312        1.52477       -1.67150
H          4.63485       -0.70998       -0.92690
H          4.59939        0.40585        0.43460
H          3.61528       -1.68118        1.12292
H          2.36461       -0.45117        1.11881
H          2.84824       -2.57342       -1.05045
H          1.60660       -1.33996       -1.17293
H          0.79487       -3.61846       -0.37484
H          1.77461       -3.42484        1.07670
H         -0.46044       -2.84165        1.69782
H          0.42804       -1.32626        1.63573
H         -1.52313       -2.41057       -0.47785
H         -0.50340       -0.99976       -0.76266
H         -2.59288       -1.24177        1.47801
H         -1.50302        0.14944        1.23506
