38
mol921_clust-8
C          3.13529        3.20000       -0.73313
C          3.01141        1.79319       -0.15809
C          4.36507        1.16136        0.16567
C          4.32956       -0.19169        0.88318
C          3.60854       -1.32240        0.13517
C          2.11322       -1.42352        0.43271
C          1.39652       -2.49517       -0.38635
C         -0.11931       -2.58615       -0.15818
C         -0.97918       -1.68758       -1.05541
C         -0.79377       -0.17405       -0.91836
C         -1.04883        0.39903        0.47674
C         -2.38835        0.05069        1.10145
Br        -3.91643        0.66962        0.05322
H          2.15012        3.62700       -0.97322
H          3.63074        3.87917       -0.02126
H          3.73348        3.19862       -1.65823
H          2.46850        1.15878       -0.87853
H          2.38997        1.81854        0.75459
H          4.93774        1.05327       -0.77346
H          4.94278        1.86838        0.78673
H          3.86939       -0.06651        1.87993
H          5.37223       -0.49253        1.07373
H          3.75871       -1.19494       -0.95260
H          4.07782       -2.28877        0.38632
H          1.97491       -1.63901        1.50779
H          1.64224       -0.44619        0.26455
H          1.59067       -2.32522       -1.46117
H          1.85857       -3.46982       -0.15413
H         -0.34031       -2.39045        0.90673
H         -0.44323       -3.62422       -0.33516
H         -0.78446       -1.96029       -2.10660
H         -2.04219       -1.93204       -0.88698
H         -1.47267        0.32145       -1.63093
H          0.22390        0.11298       -1.22988
H         -0.93572        1.49458        0.44587
H         -0.28204        0.03372        1.18238
H         -2.50105        0.51715        2.08753
H         -2.52599       -1.03263        1.21094
