20
mol995_clust-8
C         -5.21644       -0.12681        0.48145
C         -3.89808       -0.65379       -0.03466
O         -2.92263        0.38086        0.10484
C         -1.67979        0.09588       -0.28893
O         -1.35604       -0.97172       -0.74219
C         -0.76090        1.28247       -0.09953
C          0.69456        1.00291       -0.46250
C          1.35440        0.03077        0.50161
Br         3.23643       -0.23723        0.08515
H         -5.99138       -0.90074        0.38663
H         -5.13791        0.15663        1.54080
H         -5.53689        0.75591       -0.09025
H         -3.56256       -1.54088        0.52513
H         -3.95999       -0.94752       -1.09431
H         -1.16107        2.10033       -0.72005
H         -0.86462        1.62974        0.94170
H          0.74808        0.59423       -1.48268
H          1.25044        1.95262       -0.46208
H          0.88492       -0.95852        0.45317
H          1.32275        0.39953        1.53574
