38
mol921_clust-24
C          6.52006       -2.63141        0.67415
C          5.67426       -1.87644       -0.34518
C          4.78525       -0.80446        0.28041
C          3.93363       -0.04499       -0.73242
C          3.04669        1.02746       -0.10637
C          2.18216        1.76861       -1.12318
C          1.35905        2.92027       -0.54040
C          0.40793        2.54118        0.59747
C         -0.60245        1.45323        0.24148
C         -1.60965        1.18713        1.35919
C         -2.54836        0.00265        1.11254
C         -3.45474        0.20886       -0.08916
Br        -4.70672       -1.26496       -0.32675
H          7.14847       -3.39540        0.19265
H          7.18686       -1.94699        1.22243
H          5.88623       -3.14014        1.41788
H          5.04242       -2.58956       -0.90285
H          6.33216       -1.40671       -1.09702
H          4.12579       -1.27229        1.03383
H          5.41541       -0.08776        0.83765
H          3.30108       -0.76135       -1.28715
H          4.59225        0.42046       -1.48760
H          2.40531        0.55603        0.65902
H          3.67748        1.75454        0.43682
H          2.83139        2.17078       -1.91967
H          1.51522        1.04581       -1.62533
H          2.04643        3.70337       -0.17688
H          0.77553        3.38400       -1.35449
H         -0.13791        3.44610        0.91543
H          0.98681        2.22025        1.48111
H         -1.12748        1.74465       -0.68552
H         -0.07439        0.51202        0.00751
H         -1.05891        0.99690        2.29581
H         -2.20580        2.09906        1.54211
H         -3.17230       -0.16196        2.00488
H         -1.95901       -0.91806        0.96805
H         -4.06713        1.11454        0.01617
H         -2.89380        0.27281       -1.02961
