38
mol921_clust-22
C         -6.89772       -1.34145        0.60562
C         -5.69603       -0.63576       -0.01341
C         -4.39972       -1.43432        0.11885
C         -3.18611       -0.80725       -0.56815
C         -2.74781        0.53790        0.00776
C         -1.47453        1.08268       -0.63233
C         -1.05485        2.44704       -0.08425
C          0.25864        2.99894       -0.65925
C          1.52028        2.66407        0.14075
C          1.81861        1.17642        0.30904
C          3.15662        0.91627        0.99366
C          3.46570       -0.54649        1.25529
Br         3.68099       -1.59160       -0.38141
H         -7.81654       -0.74544        0.50013
H         -7.07563       -2.31822        0.12809
H         -6.73984       -1.52446        1.68050
H         -5.57528        0.35408        0.45753
H         -5.89073       -0.44019       -1.08276
H         -4.17502       -1.58487        1.19062
H         -4.56227       -2.44334       -0.29821
H         -3.39830       -0.68799       -1.64606
H         -2.33854       -1.51134       -0.50566
H         -3.55485        1.28151       -0.11119
H         -2.59263        0.43321        1.09733
H         -0.66151        0.34977       -0.50117
H         -1.62289        1.16739       -1.72378
H         -1.87103        3.16033       -0.28875
H         -0.98059        2.39520        1.01764
H          0.19146        4.09646       -0.72745
H          0.37876        2.64260       -1.69781
H          2.38427        3.14490       -0.35028
H          1.44487        3.13057        1.13991
H          1.01892        0.69686        0.89975
H          1.81234        0.68234       -0.67719
H          3.16871        1.42134        1.97674
H          3.97591        1.36521        0.40766
H          4.40658       -0.66931        1.80516
H          2.66065       -1.03862        1.81723
