38
mol921_clust-23
C         -6.45526       -0.04879       -0.78966
C         -5.21914       -0.93149       -0.65886
C         -4.14293       -0.33730        0.24659
C         -2.89772       -1.21220        0.36609
C         -1.84614       -0.69089        1.34863
C         -1.32305        0.72166        1.07353
C         -0.70571        0.89834       -0.31206
C         -0.10559        2.28317       -0.56810
C          1.00882        2.70716        0.39765
C          2.12246        1.67679        0.59182
C          2.85962        1.29987       -0.69034
C          3.89619        0.20471       -0.51619
Br         3.09709       -1.52674       -0.08293
H         -6.92586        0.12389        0.19139
H         -6.19752        0.93674       -1.20936
H         -7.21105       -0.50416       -1.44696
H         -4.78770       -1.11491       -1.65844
H         -5.51139       -1.92321       -0.27179
H         -3.86473        0.65980       -0.13850
H         -4.56596       -0.16291        1.25301
H         -2.44762       -1.33979       -0.63396
H         -3.20055       -2.22508        0.68285
H         -2.26647       -0.71791        2.36891
H         -0.99098       -1.38860        1.35356
H         -2.13270        1.46087        1.20788
H         -0.57379        0.96128        1.84618
H          0.06324        0.11968       -0.46451
H         -1.47207        0.71031       -1.08230
H         -0.90814        3.03946       -0.52552
H          0.27212        2.31517       -1.60408
H          1.44293        3.65667        0.03957
H          0.57370        2.93445        1.38470
H          2.85234        2.06688        1.32170
H          1.70472        0.76320        1.04586
H          3.38754        2.18627       -1.08640
H          2.14878        0.99138       -1.47344
H          4.59385        0.42357        0.30324
H          4.46997        0.03673       -1.43546
