38
mol921_clust-10
C          5.47436       -2.98094        0.80031
C          4.41604       -1.99444        0.31871
C          4.97805       -0.92198       -0.61401
C          3.93481        0.03047       -1.19925
C          3.21651        0.90214       -0.17107
C          2.23017        1.88234       -0.80150
C          1.54350        2.82213        0.19179
C          0.75153        2.13115        1.30792
C         -0.28735        1.10767        0.84281
C         -1.36403        1.67958       -0.07886
C         -2.38324        0.65377       -0.58425
C         -3.23396        0.06275        0.52724
Br        -4.58432       -1.16445       -0.15592
H          5.04557       -3.73927        1.47229
H          6.27779       -2.46414        1.34909
H          5.94096       -3.50934       -0.04629
H          3.94077       -1.51875        1.19282
H          3.61059       -2.54006       -0.20407
H          5.74430       -0.33690       -0.07345
H          5.50998       -1.41920       -1.44359
H          3.18523       -0.55329       -1.76401
H          4.42521        0.68554       -1.93980
H          2.68498        0.25835        0.54937
H          3.96405        1.46343        0.41919
H          2.76022        2.49162       -1.55350
H          1.47047        1.31381       -1.36744
H          2.30504        3.47008        0.65863
H          0.87968        3.50340       -0.36647
H          0.24717        2.90616        1.91041
H          1.45104        1.62960        1.99708
H          0.21554        0.26874        0.32948
H         -0.75711        0.66814        1.73834
H         -1.89053        2.50250        0.43771
H         -0.88704        2.13628       -0.96097
H         -1.86121       -0.16055       -1.11374
H         -3.04679        1.13113       -1.32216
H         -2.64260       -0.52086        1.24327
H         -3.78043        0.84156        1.07598
