20
mol995_clust-6
C          3.80235        2.14666        0.15509
C          3.70609        0.67331       -0.16441
O          2.40123        0.22541        0.20419
C          2.11243       -1.05862       -0.03242
O          2.89099       -1.83265       -0.52229
C          0.70858       -1.40486        0.41072
C         -0.35011       -0.39491       -0.03791
C         -1.73293       -0.80829        0.43247
Br        -3.10221        0.45842       -0.12013
H          3.64460        2.32665        1.22818
H          4.79852        2.52411       -0.11636
H          3.05032        2.71949       -0.40631
H          3.86409        0.47351       -1.23571
H          4.45579        0.08341        0.38613
H          0.49589       -2.41333        0.02958
H          0.72204       -1.46742        1.51262
H         -0.10145        0.59981        0.35880
H         -0.34627       -0.31067       -1.13615
H         -1.79013       -0.86142        1.52781
H         -2.03219       -1.78061        0.01961
