38
mol921_clust-9
C         -2.45198        2.88072        1.23225
C         -3.37104        1.83159        0.61641
C         -2.81993        1.25543       -0.68673
C         -3.67273        0.14400       -1.31084
C         -3.79619       -1.16694       -0.51963
C         -2.66533       -2.18475       -0.71670
C         -1.24701       -1.73342       -0.35947
C         -1.06508       -1.29901        1.09514
C          0.27185       -0.61339        1.37683
C          1.49724       -1.48063        1.09713
C          2.82487       -0.84560        1.50988
C          3.11552        0.52367        0.91818
Br         3.12992        0.53219       -1.03551
H         -2.87215        3.29561        2.16060
H         -1.46821        2.44673        1.47438
H         -2.28025        3.71840        0.53772
H         -4.36764        2.26798        0.42875
H         -3.53284        1.02240        1.34867
H         -2.72790        2.07601       -1.41919
H         -1.79090        0.90313       -0.51311
H         -3.28198       -0.08585       -2.31758
H         -4.68537        0.55224       -1.47274
H         -3.92677       -0.94833        0.55337
H         -4.73196       -1.66470       -0.82171
H         -2.90892       -3.08603       -0.12698
H         -2.66839       -2.50791       -1.77210
H         -0.55778       -2.56453       -0.58231
H         -0.93550       -0.91281       -1.02851
H         -1.18324       -2.17665        1.75592
H         -1.86993       -0.60172        1.37723
H          0.32427        0.30402        0.76308
H          0.29296       -0.28087        2.42994
H          1.39293       -2.44235        1.62789
H          1.54161       -1.72551        0.02368
H          3.65288       -1.52902        1.26299
H          2.84620       -0.71438        2.60733
H          2.36584        1.27004        1.20930
H          4.10464        0.88743        1.22155
