38
mol921_clust-12
C          4.09966        2.92645        0.96961
C          3.69288        1.86526       -0.04662
C          4.74004        0.76635       -0.21781
C          4.41411       -0.26119       -1.30519
C          3.07436       -0.98420       -1.14444
C          2.92075       -1.73444        0.17687
C          1.64880       -2.58073        0.27470
C          0.33369       -1.82115        0.07657
C          0.12755       -0.65764        1.04560
C         -1.18845        0.09812        0.85722
C         -2.43649       -0.72080        1.17781
C         -3.74013        0.05180        1.08717
Br        -4.16668        0.62412       -0.73157
H          4.26949        2.47962        1.96230
H          5.03382        3.42771        0.67005
H          3.32543        3.70037        1.07980
H          3.50084        2.33982       -1.02505
H          2.73299        1.41800        0.26320
H          5.71171        1.23260       -0.45614
H          4.88844        0.25615        0.75034
H          5.22485       -1.00950       -1.33777
H          4.42666        0.24241       -2.28725
H          2.25131       -0.25808       -1.25747
H          2.95414       -1.69752       -1.97841
H          3.79499       -2.39319        0.32005
H          2.95185       -1.01898        1.01625
H          1.69984       -3.39215       -0.47169
H          1.62965       -3.07683        1.26057
H         -0.49454       -2.54168        0.17755
H          0.26958       -1.44061       -0.95783
H          0.19858       -1.02878        2.08456
H          0.95328        0.06312        0.92772
H         -1.25319        0.46575       -0.18084
H         -1.18252        0.99616        1.49881
H         -2.36548       -1.10111        2.21336
H         -2.50044       -1.60739        0.52716
H         -3.71406        0.97011        1.68905
H         -4.59405       -0.55699        1.40790
