20
mol995_clust-1
C         -3.66454       -1.16310       -0.61379
C         -2.80594       -0.36548        0.33963
O         -1.85032        0.36207       -0.43108
C         -0.96223        1.08681        0.25016
O         -0.96515        1.19341        1.44868
C          0.01255        1.79663       -0.66643
C          1.44638        1.77867       -0.13567
C          2.26035        0.55736       -0.52639
Br         1.52893       -1.13229        0.12188
H         -4.41207       -1.74105       -0.05176
H         -4.19375       -0.50099       -1.31424
H         -3.05027       -1.86417       -1.19679
H         -3.40211        0.34184        0.93774
H         -2.26813       -1.01411        1.04877
H         -0.34008        2.83926       -0.72294
H         -0.05843        1.37728       -1.68015
H          1.99370        2.64836       -0.53545
H          1.42229        1.89301        0.95899
H          3.27694        0.61353       -0.11859
H          2.32348        0.44793       -1.61717
