38
mol921_clust-29
C         -7.02466        1.13762        0.05120
C         -6.18176       -0.03398       -0.44005
C         -4.90724       -0.24561        0.37269
C         -4.07501       -1.43833       -0.09883
C         -2.75411       -1.64568        0.65871
C         -1.51832       -1.00086        0.02412
C         -1.57696        0.51708       -0.14186
C         -0.30398        1.13815       -0.72046
C          0.91954        1.05984        0.19079
C          2.15393        1.72302       -0.41496
C          3.36587        1.78585        0.51435
C          3.83313        0.46082        1.09269
Br         4.33710       -0.84202       -0.27281
H         -7.33916        0.99036        1.09670
H         -6.45725        2.08098        0.00773
H         -7.93324        1.26620       -0.55584
H         -5.91225        0.12272       -1.49923
H         -6.78397       -0.95915       -0.41771
H         -4.30293        0.67654        0.34400
H         -5.17272       -0.39334        1.43517
H         -3.86662       -1.33804       -1.17984
H         -4.69729       -2.34420       -0.00388
H         -2.86792       -1.27795        1.69436
H         -2.55447       -2.72544        0.74857
H         -0.64092       -1.27124        0.63484
H         -1.34473       -1.45716       -0.96743
H         -2.41889        0.77579       -0.80473
H         -1.80234        0.98551        0.83378
H         -0.50043        2.19799       -0.95725
H         -0.06728        0.65258       -1.68422
H          0.68102        1.53295        1.16155
H          1.14629        0.00289        0.40872
H          1.90337        2.75299       -0.72017
H          2.43307        1.19058       -1.33980
H          3.12998        2.43016        1.38110
H          4.20677        2.26758       -0.00958
H          3.05590       -0.02784        1.69351
H          4.72478        0.59178        1.71763
