38
mol921_clust-26
C         -6.11374       -2.17852       -0.11001
C         -5.54555       -0.80055       -0.43026
C         -4.31023       -0.44778        0.39479
C         -3.73378        0.92734        0.06696
C         -2.55337        1.34806        0.94517
C         -1.34380        0.40795        0.91543
C         -0.77373        0.12548       -0.47763
C         -0.37358        1.36404       -1.28376
C          0.69690        2.27180       -0.66766
C          2.08020        1.62879       -0.49142
C          2.30710        0.94002        0.85360
C          3.65647        0.25888        0.98907
Br         3.83442       -1.30064       -0.17564
H         -6.40868       -2.25039        0.94902
H         -7.00169       -2.40250       -0.71983
H         -5.37013       -2.96902       -0.29932
H         -6.32175       -0.03262       -0.26718
H         -5.28981       -0.74577       -1.50290
H         -4.56325       -0.49100        1.47008
H         -3.54218       -1.22497        0.23561
H         -4.53231        1.68261        0.16659
H         -3.43778        0.95001       -0.99682
H         -2.23646        2.36268        0.64969
H         -2.89878        1.43783        1.98959
H         -0.55965        0.83834        1.56052
H         -1.61061       -0.55338        1.38538
H          0.09190       -0.55193       -0.38417
H         -1.51658       -0.44074       -1.06467
H         -1.27233        1.97238       -1.48209
H         -0.01736        1.03331       -2.27449
H          0.80083        3.14822       -1.32691
H          0.34655        2.67421        0.29953
H          2.25142        0.90402       -1.30568
H          2.85969        2.40077       -0.60878
H          1.51620        0.20465        1.06186
H          2.24513        1.69290        1.66021
H          3.82044       -0.11823        2.00566
H          4.48511        0.92798        0.72071
