20
mol910_clust-5
C         -3.87884       -1.39988       -0.20891
C         -2.84896       -0.49663        0.45983
C         -2.45132        0.70091       -0.40536
C         -1.39313        1.62768        0.21117
C          0.06423        1.30909       -0.14442
C          0.52639       -0.06587        0.30519
Br         2.42226       -0.34980       -0.04882
H         -3.48750       -1.82172       -1.14832
H         -4.16277       -2.24011        0.44179
H         -4.79631       -0.84199       -0.45503
H         -3.25011       -0.12317        1.41793
H         -1.95910       -1.09130        0.72359
H         -2.10017        0.34533       -1.39148
H         -3.36430        1.28376       -0.61336
H         -1.51153        1.64081        1.30932
H         -1.58073        2.66150       -0.11878
H          0.71840        2.06881        0.31193
H          0.20402        1.39327       -1.23499
H          0.39340       -0.21005        1.38577
H          0.00729       -0.87388       -0.22458
