38
mol921_clust-27
C         -6.88870        0.59172       -0.63840
C         -5.38558        0.33528       -0.64805
C         -5.01206       -1.05371       -0.13123
C         -3.52283       -1.39058       -0.21385
C         -2.61954       -0.51397        0.65140
C         -1.15107       -0.92822        0.59558
C         -0.22684       -0.12485        1.51333
C         -0.20977        1.38709        1.26553
C          0.13444        1.80516       -0.16824
C          1.43739        1.22271       -0.71926
C          2.67817        1.59919        0.08549
C          3.97125        0.99998       -0.43690
Br         4.03495       -0.94406       -0.24285
H         -7.13068        1.59848       -1.01054
H         -7.42108       -0.13605       -1.27137
H         -7.29933        0.50446        0.38020
H         -4.88302        1.10759       -0.04211
H         -4.99522        0.45448       -1.67431
H         -5.35135       -1.15363        0.91597
H         -5.57949       -1.80781       -0.70384
H         -3.19162       -1.32219       -1.26608
H         -3.37922       -2.44524        0.07776
H         -2.71694        0.53808        0.33539
H         -2.97092       -0.54909        1.69915
H         -1.06848       -1.99566        0.86256
H         -0.79735       -0.85926       -0.44834
H         -0.52125       -0.30201        2.56208
H          0.79716       -0.52510        1.41991
H          0.50375        1.84827        1.96899
H         -1.19034        1.81819        1.52732
H         -0.68823        1.51225       -0.84198
H          0.17791        2.90716       -0.21407
H          1.36297        0.12416       -0.77011
H          1.57111        1.56265       -1.76061
H          2.55811        1.31402        1.14291
H          2.80387        2.69725        0.07500
H          4.11332        1.19714       -1.50792
H          4.84379        1.37502        0.11134
