38
mol921_clust-18
C         -4.65948       -2.42271        1.24015
C         -5.03443       -2.10729       -0.20546
C         -3.98276       -1.30201       -0.97116
C         -3.72707        0.09968       -0.42139
C         -2.71000        0.88906       -1.24202
C         -2.47544        2.32214       -0.75931
C         -2.00012        2.45500        0.69239
C         -0.76577        1.62454        1.05013
C          0.47058        1.94453        0.21111
C          1.73632        1.19983        0.63539
C          1.64853       -0.31520        0.46570
C          2.91993       -1.06811        0.81394
Br         4.40291       -0.68248       -0.39848
H         -4.57306       -1.51127        1.85126
H         -5.41537       -3.06477        1.71654
H         -3.69309       -2.95016        1.29212
H         -5.99344       -1.56038       -0.22528
H         -5.21554       -3.05208       -0.74417
H         -3.03094       -1.86424       -0.98172
H         -4.29428       -1.21920       -2.02675
H         -3.37892        0.02688        0.62250
H         -4.68051        0.65804       -0.38379
H         -1.75311        0.33693       -1.25519
H         -3.04388        0.92162       -2.29328
H         -1.74636        2.80542       -1.43096
H         -3.41016        2.89758       -0.87349
H         -1.79049        3.51928        0.89573
H         -2.82099        2.17834        1.37490
H         -1.01203        0.55244        0.96053
H         -0.52536        1.78593        2.11550
H          0.27011        1.72336       -0.85173
H          0.66262        3.03011        0.26081
H          2.58789        1.57311        0.04430
H          1.96784        1.43308        1.69044
H          1.34726       -0.56188       -0.56665
H          0.86056       -0.72309        1.12272
H          3.28281       -0.81159        1.81823
H          2.77472       -2.15362        0.75757
