38
mol921_clust-6
C          5.07114       -2.72831        0.84430
C          4.96804       -1.62336       -0.20103
C          4.04176       -0.48229        0.21305
C          3.92792        0.61939       -0.83869
C          3.08868        1.82499       -0.41423
C          1.61884        1.51332       -0.13905
C          0.78799        2.75825        0.16768
C         -0.65848        2.46830        0.56976
C         -1.49839        1.81856       -0.52933
C         -2.96995        1.61274       -0.16670
C         -3.22321        0.74168        1.06655
C         -2.52951       -0.60946        1.07613
Br        -3.03901       -1.75029       -0.42555
H          5.74572       -3.53361        0.51733
H          5.45598       -2.33714        1.79963
H          4.08604       -3.17880        1.04515
H          4.61142       -2.04871       -1.15528
H          5.97275       -1.21652       -0.41045
H          3.04285       -0.89738        0.43339
H          4.40297       -0.04417        1.16169
H          3.50788        0.19172       -1.76703
H          4.94244        0.96671       -1.09981
H          3.53710        2.28404        0.48550
H          3.14505        2.59389       -1.20397
H          1.19843        0.98330       -1.01143
H          1.53544        0.81303        0.71093
H          1.27870        3.32004        0.98104
H          0.79742        3.42867       -0.71059
H         -1.14450        3.41014        0.87887
H         -0.65044        1.82588        1.46866
H         -1.44569        2.44654       -1.43511
H         -1.05938        0.84946       -0.82110
H         -3.44792        2.59221        0.00404
H         -3.48790        1.16436       -1.02963
H         -4.30766        0.59344        1.19115
H         -2.88159        1.26688        1.97621
H         -1.43737       -0.51600        1.01669
H         -2.78138       -1.18070        1.97775
