20
mol910_clust-9
C         -4.63047       -0.98725       -0.11008
C         -3.73180        0.21271        0.16638
C         -2.26284       -0.04319       -0.16275
C         -1.36200        1.15684        0.12463
C          0.09766        0.98700       -0.30677
C          0.81238       -0.11964        0.45016
Br         2.69303       -0.25034       -0.04195
H         -5.68071       -0.77006        0.13469
H         -4.58806       -1.27966       -1.17127
H         -4.32243       -1.86111        0.48578
H         -3.81839        0.50408        1.22765
H         -4.08561        1.08250       -0.41398
H         -1.91970       -0.92281        0.40991
H         -2.16961       -0.32123       -1.22833
H         -1.77022        2.04087       -0.39353
H         -1.40230        1.39610        1.20247
H          0.63816        1.93302       -0.14699
H          0.14654        0.77698       -1.38813
H          0.79308        0.05390        1.53454
H          0.38571       -1.10932        0.24617
