38
mol921_clust-25
C         -4.67261        2.65226        0.72580
C         -4.45090        1.38239       -0.08859
C         -3.71377        0.29505        0.69089
C         -3.57997       -1.04397       -0.03969
C         -2.88258       -0.98868       -1.40518
C         -1.43663       -0.46919       -1.42696
C         -0.34428       -1.52513       -1.22431
C         -0.31921       -2.25110        0.12373
C         -0.17823       -1.34777        1.35380
C          0.98659       -0.35763        1.30378
C          2.35849       -1.01263        1.17030
C          3.51587       -0.03432        1.08478
Br         3.49586        1.01645       -0.56339
H         -5.27443        2.44884        1.62589
H         -3.71414        3.08058        1.06012
H         -5.19598        3.42302        0.14057
H         -3.88555        1.63316       -1.00177
H         -5.42257        0.98650       -0.43349
H         -2.71671        0.67601        0.97539
H         -4.24109        0.11859        1.64449
H         -4.59085       -1.46095       -0.19123
H         -3.06292       -1.75643        0.62256
H         -2.90586       -1.99716       -1.85393
H         -3.49317       -0.36208       -2.07570
H         -1.25155       -0.00043       -2.40675
H         -1.31503        0.34676       -0.69418
H         -0.44083       -2.28251       -2.02140
H          0.63460       -1.04414       -1.39337
H          0.51020       -2.97847        0.10510
H         -1.23050       -2.86130        0.23699
H         -1.10851       -0.77583        1.49840
H         -0.07966       -1.98496        2.24978
H          0.84154        0.34622        0.46790
H          0.97355        0.25817        2.21945
H          2.39036       -1.67615        0.29131
H          2.54457       -1.65683        2.04890
H          4.48439       -0.54865        1.08915
H          3.49839        0.69677        1.90414
