38
mol921_clust-19
C         -6.64122       -1.74571        1.38246
C         -5.67092       -0.69588        0.85176
C         -5.39366       -0.83932       -0.64435
C         -4.49861        0.24849       -1.23925
C         -3.07284        0.27402       -0.69161
C         -2.18898        1.32035       -1.36792
C         -0.73073        1.31549       -0.90754
C         -0.53412        1.66134        0.56905
C          0.92552        1.85122        0.98341
C          1.78872        0.59977        0.83848
C          3.21448        0.80129        1.34133
C          4.10799       -0.42148        1.23818
Br         4.46732       -0.95793       -0.60589
H         -6.82143       -1.62286        2.46089
H         -7.61503       -1.68285        0.87109
H         -6.25066       -2.76342        1.22280
H         -4.72512       -0.75961        1.41528
H         -6.07260        0.31395        1.04824
H         -4.94068       -1.82929       -0.83540
H         -6.35703       -0.84106       -1.18327
H         -4.96692        1.23602       -1.07523
H         -4.45577        0.11475       -2.33397
H         -3.09835        0.46095        0.39458
H         -2.61601       -0.72495       -0.81774
H         -2.21791        1.15894       -2.45930
H         -2.62230        2.32311       -1.19998
H         -0.29265        0.32540       -1.12238
H         -0.16069        2.03713       -1.51841
H         -0.98490        0.87684        1.20148
H         -1.09102        2.58783        0.79327
H          1.37121        2.66794        0.38734
H          0.95741        2.19071        2.03332
H          1.32072       -0.23487        1.39165
H          1.82455        0.28588       -0.21706
H          3.19046        1.08499        2.40926
H          3.68639        1.64489        0.81039
H          5.09297       -0.24149        1.68549
H          3.65564       -1.29873        1.71971
