20
mol910_clust-8
C          3.68786        1.02428       -0.10842
C          3.56339       -0.48916       -0.25616
C          2.30391       -1.11492        0.35110
C          0.96984       -0.61595       -0.22430
C          0.35545        0.55968        0.53460
C         -0.92039        1.11301       -0.07331
Br        -2.40495       -0.15749       -0.04721
H          4.65804        1.37909       -0.48728
H          2.90644        1.55585       -0.67358
H          3.60865        1.33321        0.94655
H          3.60727       -0.75095       -1.32791
H          4.44353       -0.96803        0.20456
H          2.30823       -0.96236        1.44546
H          2.36963       -2.20473        0.20500
H          1.10450       -0.33874       -1.28592
H          0.23783       -1.43866       -0.22242
H          0.16484        0.26693        1.58064
H          1.06812        1.40022        0.57849
H         -1.28084        1.99122        0.47585
H         -0.78359        1.38725       -1.12800
