20
mol995_clust-9
C          3.66463       -1.16279       -0.61365
C          2.80559       -0.36556        0.33967
O          1.84986        0.36174       -0.43115
C          0.96212        1.08695        0.24996
O          0.96538        1.19412        1.44843
C         -0.01285        1.79654       -0.66664
C         -1.44659        1.77860       -0.13564
C         -2.26050        0.55720       -0.52611
Br        -1.52865       -1.13238        0.12191
H          4.19380       -0.50042       -1.31388
H          4.41219       -1.74059       -0.05151
H          3.05071       -1.86397       -1.19690
H          3.40137        0.34189        0.93801
H          2.26782       -1.01445        1.04862
H          0.33970        2.83919       -0.72338
H          0.05799        1.37702       -1.68031
H         -1.42235        1.89308        0.95901
H         -1.99404        2.64818       -0.53545
H         -2.32393        0.44778       -1.61688
H         -3.27697        0.61322       -0.11801
