20
mol910_clust-2
C          2.82592       -1.42757        0.39026
C          2.43524       -0.56080       -0.80584
C          2.34375        0.94382       -0.49916
C          0.96172        1.50319       -0.14264
C          0.27440        0.95471        1.11358
C         -0.49776       -0.34827        0.96270
Br        -2.01219       -0.20405       -0.26330
H          2.83624       -2.49612        0.12713
H          3.83361       -1.16318        0.74766
H          2.14174       -1.30272        1.24337
H          3.18556       -0.71999       -1.59684
H          1.48108       -0.90810       -1.23915
H          3.05611        1.18959        0.30921
H          2.69429        1.50715       -1.37886
H          1.07286        2.59169       -0.01408
H          0.28146        1.37728       -1.00213
H         -0.42301        1.71216        1.50498
H          1.02375        0.79433        1.91008
H          0.11273       -1.16803        0.56977
H         -0.92937       -0.66268        1.92087
