38
mol921_clust-16
C          4.67389        3.64696       -0.18052
C          4.17226        2.38998        0.52140
C          4.19784        1.14822       -0.36640
C          3.69035       -0.11195        0.32737
C          3.73885       -1.35695       -0.55909
C          3.16403       -2.62989        0.08145
C          1.68424       -2.89990       -0.20494
C          0.71187       -1.81661        0.25520
C         -0.75205       -2.18826        0.02796
C         -1.76020       -1.16496        0.55091
C         -1.67116        0.20157       -0.12454
C         -2.71261        1.20546        0.33637
Br        -4.53709        0.70657       -0.15391
H          4.64292        4.52257        0.48494
H          5.71397        3.52315       -0.52177
H          4.06194        3.87863       -1.06684
H          3.14191        2.55403        0.88296
H          4.78000        2.20196        1.42359
H          3.59115        1.33510       -1.27122
H          5.22846        0.97838       -0.72750
H          2.66171        0.06227        0.68424
H          4.29163       -0.29668        1.23560
H          3.21091       -1.15387       -1.50892
H          4.79091       -1.53152       -0.84084
H          3.73550       -3.50284       -0.27226
H          3.32555       -2.59160        1.17369
H          1.55279       -3.05559       -1.29109
H          1.40264       -3.85584        0.27015
H          0.93847       -0.87772       -0.27682
H          0.87342       -1.60722        1.32874
H         -0.92280       -2.34850       -1.05184
H         -0.95373       -3.15951        0.51081
H         -2.77866       -1.56210        0.41308
H         -1.62445       -1.03820        1.64022
H         -1.73241        0.08618       -1.21998
H         -0.68917        0.66181        0.08314
H         -2.55072        2.19152       -0.11542
H         -2.71777        1.31379        1.42923
