38
mol921_clust-31
C         -7.91380        0.66873       -0.49735
C         -6.61693        0.10445        0.07281
C         -5.37974        0.88371       -0.37209
C         -4.06155        0.41062        0.24353
C         -3.64046       -1.00125       -0.16473
C         -2.32429       -1.47568        0.45410
C         -1.08795       -0.69261        0.01576
C          0.21113       -1.25496        0.59052
C          1.48488       -0.54641        0.12514
C          1.61333        0.89173        0.62733
C          2.82092        1.68328        0.11952
C          4.19371        1.22865        0.59756
Br         4.96835       -0.25190       -0.41768
H         -8.78838        0.08986       -0.16480
H         -8.06538        1.71403       -0.18402
H         -7.90244        0.65354       -1.59890
H         -6.52148       -0.95310       -0.22446
H         -6.66525        0.10545        1.17612
H         -5.30233        0.84259       -1.47395
H         -5.52630        1.94879       -0.12163
H         -4.13405        0.46117        1.34550
H         -3.27092        1.12459       -0.04003
H         -4.43241       -1.71467        0.11609
H         -3.56486       -1.05093       -1.26643
H         -2.40551       -1.43739        1.55561
H         -2.17627       -2.53975        0.20136
H         -1.02769       -0.69572       -1.08805
H         -1.19842        0.36395        0.31045
H          0.28351       -2.32211        0.31973
H          0.16103       -1.22910        1.69441
H          2.35605       -1.13094        0.45822
H          1.52735       -0.55284       -0.97868
H          0.71179        1.45861        0.34273
H          1.62575        0.88799        1.73268
H          2.71122        2.72486        0.46831
H          2.81416        1.73293       -0.98186
H          4.93016        2.03545        0.50287
H          4.17276        0.89776        1.64487
