38
mol921_clust-20
C         -6.07775        0.35662        1.61056
C         -6.08756        0.08568        0.10858
C         -4.91545       -0.76242       -0.38894
C         -3.54039       -0.12397       -0.20213
C         -2.40746       -0.95422       -0.80303
C         -1.00487       -0.40689       -0.53750
C         -0.73688        0.96720       -1.15297
C          0.71818        1.42662       -1.04907
C          1.20220        1.65151        0.38239
C          2.61085        2.24144        0.48316
C          3.76300        1.41464       -0.09760
C          4.10909        0.12168        0.62754
Br         2.97793       -1.41095        0.18051
H         -6.97741        0.90838        1.92190
H         -6.04877       -0.58504        2.18245
H         -5.20512        0.95510        1.91376
H         -6.09621        1.04553       -0.43742
H         -7.02911       -0.42170       -0.15971
H         -4.93242       -1.74293        0.12109
H         -5.06212       -0.97913       -1.46132
H         -3.33756        0.02846        0.87257
H         -3.55124        0.88311       -0.65485
H         -2.47036       -1.98076       -0.40239
H         -2.56422       -1.04647       -1.89325
H         -0.83623       -0.36895        0.55275
H         -0.25963       -1.11972       -0.92986
H         -1.02660        0.93933       -2.21808
H         -1.38775        1.72465       -0.68192
H          0.84081        2.36555       -1.61752
H          1.36166        0.67948       -1.54457
H          0.50577        2.34306        0.88819
H          1.15422        0.70698        0.94683
H          2.61829        3.22178       -0.02402
H          2.83583        2.45182        1.54331
H          4.67460        2.03528       -0.04779
H          3.60538        1.20767       -1.16822
H          5.12325       -0.21085        0.37620
H          4.03958        0.23521        1.71796
