38
mol921_clust-3
C         -3.71408       -2.33833        1.56879
C         -2.55161       -2.00979        0.63929
C         -2.84599       -0.86061       -0.32144
C         -1.68433       -0.55232       -1.26238
C         -1.88475        0.67413       -2.15288
C         -1.97747        2.02694       -1.43502
C         -0.76260        2.37462       -0.55911
C         -0.92857        2.03086        0.92298
C          0.31047        2.30753        1.77924
C          1.54225        1.47208        1.42128
C          1.36394       -0.02621        1.65841
C          2.48679       -0.88787        1.11111
Br         2.53817       -0.89606       -0.84378
H         -3.46741       -3.16554        2.25110
H         -3.98846       -1.46691        2.18458
H         -4.60863       -2.63220        0.99700
H         -2.27235       -2.90652        0.05935
H         -1.66007       -1.75336        1.23942
H         -3.74590       -1.09775       -0.91718
H         -3.10799        0.03575        0.26732
H         -1.50530       -1.43117       -1.90494
H         -0.75376       -0.43388       -0.68089
H         -1.04509        0.72182       -2.86738
H         -2.79415        0.53302       -2.76303
H         -2.10174        2.80142       -2.20856
H         -2.89678        2.07456       -0.82543
H          0.12619        1.86451       -0.96934
H         -0.54557        3.45377       -0.63375
H         -1.22794        0.97646        1.03319
H         -1.77385        2.61461        1.32587
H          0.57293        3.37585        1.69367
H          0.05687        2.14135        2.84067
H          1.81214        1.64106        0.36650
H          2.40488        1.82497        2.01158
H          0.41275       -0.37993        1.23099
H          1.30112       -0.22211        2.74393
H          2.37232       -1.93891        1.40205
H          3.47543       -0.53495        1.43391
