38
mol921_clust-21
C         -5.77156       -1.30277        1.01360
C         -5.86019       -0.28093       -0.11581
C         -4.70641       -0.35371       -1.12073
C         -3.30104       -0.20021       -0.53252
C         -3.07209        1.10896        0.22146
C         -1.65895        1.27808        0.78219
C         -0.55930        1.39578       -0.27093
C          0.82518        1.62873        0.32605
C          1.92071        1.74486       -0.72991
C          3.32754        1.95886       -0.16766
C          3.89939        0.85635        0.73020
C          4.16355       -0.48985        0.06955
Br         2.60229       -1.66080       -0.07739
H         -6.66468       -1.26736        1.65526
H         -5.68441       -2.32740        0.61710
H         -4.89706       -1.12342        1.65842
H         -5.92006        0.73411        0.31237
H         -6.80615       -0.42523       -0.66368
H         -4.75942       -1.31962       -1.65277
H         -4.85837        0.42368       -1.88971
H         -2.57485       -0.28438       -1.35735
H         -3.08071       -1.04632        0.14238
H         -3.30588        1.95881       -0.44592
H         -3.78794        1.17730        1.05759
H         -1.63473        2.17832        1.42043
H         -1.42935        0.42875        1.45088
H         -0.52392        0.47946       -0.88453
H         -0.80659        2.21912       -0.96588
H          1.05406        0.79512        1.01134
H          0.81413        2.54372        0.94630
H          1.90358        0.84653       -1.36921
H          1.68589        2.59243       -1.39671
H          4.02627        2.11756       -1.00747
H          3.33834        2.89827        0.41159
H          3.27884        0.71048        1.62876
H          4.87850        1.20548        1.10165
H          4.54731       -0.37432       -0.95329
H          4.88593       -1.07794        0.64790
