20
mol910_clust-7
C          3.19716       -0.07098       -1.15554
C          3.03041       -0.71336        0.21867
C          1.61688       -0.66658        0.80615
C          1.05821        0.74617        1.03982
C          0.31798        1.38038       -0.15266
C         -1.19787        1.32433       -0.08181
Br        -1.93566       -0.48533       -0.12444
H          4.22102       -0.21022       -1.53394
H          2.50690       -0.51412       -1.89158
H          3.00563        1.01318       -1.12807
H          3.72660       -0.23154        0.92808
H          3.34568       -1.76854        0.16053
H          0.92491       -1.23354        0.16170
H          1.63401       -1.20324        1.76825
H          0.37263        0.72694        1.90326
H          1.88948        1.40494        1.34314
H          0.65113        0.93652       -1.10291
H          0.56685        2.45391       -0.21780
H         -1.57520        1.76915        0.84867
H         -1.65801        1.84311       -0.93180
