38
mol921_clust-34
C         -8.56040       -0.50463        0.18297
C         -7.12037       -0.90011        0.49018
C         -6.08798        0.01108       -0.16923
C         -4.64374       -0.37818        0.13213
C         -3.61254        0.53356       -0.52636
C         -2.16814        0.14075       -0.22878
C         -1.14301        1.06472       -0.88357
C          0.31613        0.64737       -0.69179
C          0.80131        0.68946        0.75751
C          2.25833        0.26553        0.95000
C          3.27719        1.20541        0.30965
C          4.72695        0.84986        0.58597
Br         5.26955       -0.84243       -0.22584
H         -9.27900       -1.17929        0.67180
H         -8.77405        0.51914        0.52933
H         -8.75814       -0.53382       -0.90042
H         -6.94461       -1.94025        0.16462
H         -6.96037       -0.89641        1.58250
H         -6.24581        0.00890       -1.26299
H         -6.26070        1.05298        0.15622
H         -4.47081       -1.41946       -0.19443
H         -4.48623       -0.37688        1.22580
H         -3.77268        0.53585       -1.61960
H         -3.78222        1.57439       -0.19650
H         -2.02151        0.12666        0.86501
H         -1.99328       -0.89569       -0.57033
H         -1.35644        1.11778       -1.96498
H         -1.28215        2.09159       -0.49944
H          0.94849        1.30462       -1.31109
H          0.46061       -0.37323       -1.09009
H          0.65625        1.70916        1.15938
H          0.16902        0.03003        1.37359
H          2.47298        0.19778        2.03050
H          2.40026       -0.75140        0.54687
H          3.12299        2.22841        0.69932
H          3.12506        1.26410       -0.77986
H          5.41264        1.60140        0.17641
H          4.92333        0.73992        1.66095
