38
mol921_clust-11
C         -4.57421        2.23569       -0.91404
C         -5.29288        1.56601        0.25618
C         -5.69640        0.10135        0.02045
C         -4.66733       -0.95010        0.44448
C         -3.31319       -0.87676       -0.25620
C         -2.37002       -2.01017        0.13870
C         -1.03633       -2.01266       -0.61345
C         -0.22607       -0.71569       -0.53216
C          0.11686       -0.27538        0.88927
C          0.89735        1.03973        0.97234
C          2.22174        1.08332        0.20122
C          3.18635       -0.00630        0.63446
Br         4.90440        0.12735       -0.27416
H         -3.63634        1.72507       -1.17615
H         -4.32890        3.28347       -0.68282
H         -5.20943        2.23469       -1.81408
H         -6.19810        2.15321        0.48113
H         -4.66810        1.62893        1.16506
H         -6.62707       -0.10610        0.57293
H         -5.94678       -0.03921       -1.04659
H         -5.10068       -1.95157        0.27656
H         -4.50660       -0.87358        1.53534
H         -3.46126       -0.88558       -1.35177
H         -2.83582        0.08915       -0.02202
H         -2.19028       -1.96620        1.22735
H         -2.87245       -2.97686       -0.03641
H         -0.41830       -2.84521       -0.23503
H         -1.22695       -2.23742       -1.67686
H         -0.76880        0.10068       -1.04102
H          0.70178       -0.85661       -1.11154
H         -0.81116       -0.15291        1.47153
H          0.67385       -1.08392        1.39612
H          1.09151        1.27230        2.03341
H          0.26011        1.85779        0.59588
H          2.69563        2.06524        0.35540
H          2.04098        0.99676       -0.88212
H          2.80923       -1.01069        0.40410
H          3.40449        0.04690        1.70964
