20
mol910_clust-1
C          2.63344       -1.72429        0.03122
C          2.07028       -0.40869        0.55368
C          1.81765        0.61342       -0.55560
C          1.14241        1.91082       -0.08743
C         -0.38672        1.97518       -0.16578
C         -1.18807        1.00355        0.69138
Br        -1.46940       -0.75422       -0.12073
H          1.91910       -2.20949       -0.65244
H          3.57187       -1.56545       -0.52417
H          2.84360       -2.42824        0.85013
H          2.76545        0.03112        1.29037
H          1.13515       -0.61232        1.09937
H          2.78878        0.86114       -1.01670
H          1.21652        0.14879       -1.35593
H          1.45945        2.13109        0.94789
H          1.51856        2.75095       -0.69282
H         -0.71716        1.88553       -1.21368
H         -0.69212        2.98560        0.15757
H         -0.71202        0.81827        1.66377
H         -2.20228        1.38094        0.86726
