38
mol921_clust-15
C         -2.96379        2.69398        0.30073
C         -4.34979        2.08078        0.11265
C         -4.37644        0.55449        0.21914
C         -3.61940       -0.16280       -0.89728
C         -3.59127       -1.68775       -0.77222
C         -2.95010       -2.22310        0.51629
C         -1.59942       -1.59968        0.87427
C         -0.50900       -1.77629       -0.18258
C          0.76075       -0.96859        0.09722
C          0.57793        0.53053       -0.14859
C          1.73116        1.44223        0.27482
C          3.02785        1.32500       -0.51426
Br         4.18742       -0.15265        0.02793
H         -3.00789        3.79328        0.28772
H         -2.52560        2.38922        1.26548
H         -2.26488        2.38540       -0.49196
H         -4.75812        2.38630       -0.86668
H         -5.03279        2.50124        0.86909
H         -3.96238        0.26415        1.20079
H         -5.42382        0.20623        0.22021
H         -2.58320        0.21270       -0.94350
H         -4.07403        0.10820       -1.86587
H         -4.62041       -2.08014       -0.84120
H         -3.05932       -2.09883       -1.64634
H         -3.64018       -2.06669        1.36221
H         -2.83737       -3.31694        0.42395
H         -1.74584       -0.52600        1.08070
H         -1.24433       -2.03328        1.82458
H         -0.89395       -1.48925       -1.17665
H         -0.25663       -2.84734       -0.25793
H          1.08537       -1.13494        1.13973
H          1.57962       -1.34728       -0.53306
H          0.36642        0.69439       -1.22129
H         -0.32228        0.87911        0.38408
H          1.94357        1.32099        1.34990
H          1.39716        2.48702        0.14956
H          2.84094        1.18312       -1.58741
H          3.64929        2.21910       -0.38475
