38
mol921_clust-17
C         -5.63878       -1.41535        1.50622
C         -4.42876       -0.65629        0.97261
C         -4.43298       -0.51471       -0.54920
C         -3.28734        0.32658       -1.11310
C         -1.89675       -0.26327       -0.88151
C         -0.76424        0.50421       -1.56713
C         -0.62965        1.97386       -1.15454
C         -0.47775        2.21405        0.35123
C          0.66721        1.44889        1.01880
C          2.04400        1.75058        0.43157
C          3.20430        1.08532        1.17121
C          3.12280       -0.42604        1.30711
Br         3.02031       -1.35163       -0.41115
H         -5.60919       -1.50669        2.60231
H         -6.57840       -0.90651        1.23792
H         -5.68438       -2.43328        1.08734
H         -3.50784       -1.16870        1.29728
H         -4.39144        0.34980        1.42717
H         -4.40896       -1.52061       -1.00669
H         -5.39239       -0.06558       -0.85976
H         -3.34187        1.33892       -0.67498
H         -3.43962        0.45989       -2.19844
H         -1.69500       -0.32583        0.20132
H         -1.88635       -1.30587       -1.24399
H          0.18615       -0.02173       -1.37475
H         -0.91186        0.46178       -2.66009
H          0.23245        2.40859       -1.68736
H         -1.50591        2.54155       -1.50968
H         -1.41987        1.95097        0.86152
H         -0.33767        3.29532        0.52299
H          0.67222        1.68512        2.09764
H          0.46681        0.36610        0.94744
H          2.07519        1.43843       -0.62495
H          2.21135        2.84110        0.43299
H          3.26160        1.48129        2.20173
H          4.15484        1.35301        0.68288
H          4.01227       -0.83046        1.80503
H          2.23468       -0.74657        1.86576
