20
mol995_clust-2
C          4.45073       -1.23110        0.18605
C          3.46027       -0.29940       -0.47218
O          2.36723       -0.10917        0.42729
C          1.37187        0.67507        0.01119
O          1.36243        1.21890       -1.06442
C          0.28911        0.79113        1.05900
C         -0.92486        1.58550        0.59604
C         -1.71720        0.95245       -0.53546
Br        -2.49830       -0.77159       -0.04759
H          5.30732       -1.39942       -0.48216
H          4.82456       -0.80454        1.12790
H          3.98681       -2.20314        0.40644
H          3.90890        0.67938       -0.70442
H          3.07724       -0.71011       -1.41949
H          0.00656       -0.22600        1.37346
H          0.74400        1.26069        1.94575
H         -1.58848        1.76334        1.45593
H         -0.59410        2.57242        0.23233
H         -1.08608        0.76775       -1.41239
H         -2.56289        1.58563       -0.82841
