38
mol921_clust-5
C         -5.75994       -1.07063        0.20173
C         -4.52751       -0.23358        0.52700
C         -3.32587       -0.57010       -0.35520
C         -2.03841        0.17663       -0.00486
C         -2.10906        1.69313       -0.19036
C         -0.79251        2.41466        0.10538
C          0.31130        2.14738       -0.91712
C          1.64589        2.82683       -0.60216
C          2.27851        2.42743        0.73808
C          2.36070        0.92084        0.99101
C          3.16842        0.15277       -0.05160
C          3.17521       -1.35209        0.14663
Br         1.41766       -2.15922       -0.14446
H         -6.61117       -0.80757        0.84741
H         -6.07519       -0.92263       -0.84354
H         -5.55783       -2.14538        0.33537
H         -4.24856       -0.37966        1.58558
H         -4.77896        0.83542        0.42553
H         -3.13359       -1.65518       -0.29102
H         -3.58566       -0.37335       -1.41149
H         -1.22028       -0.23319       -0.61888
H         -1.76180       -0.04429        1.04238
H         -2.42919        1.92012       -1.22389
H         -2.89166        2.10620        0.46690
H         -0.97274        3.50255        0.15508
H         -0.45217        2.11973        1.11352
H          0.47134        1.06062       -1.01684
H         -0.03464        2.48660       -1.90863
H          1.51118        3.92208       -0.61088
H          2.35155        2.61085       -1.42211
H          3.28920        2.86709        0.79641
H          1.70897        2.88416        1.56404
H          1.34355        0.49788        1.03836
H          2.80419        0.74573        1.98612
H          4.22109        0.48795       -0.02292
H          2.80448        0.37341       -1.06779
H          3.46459       -1.63222        1.16833
H          3.84486       -1.85366       -0.56224
