20
mol995_clust-5
C         -5.43554       -0.59200        0.00023
C         -4.27513        0.37527        0.00007
O         -3.06549       -0.38449       -0.00014
C         -1.92153        0.30603       -0.00026
O         -1.86924        1.50726        0.00000
C         -0.72718       -0.62108       -0.00017
C          0.60062        0.12641       -0.00011
C          1.77168       -0.83912       -0.00000
Br         3.48481        0.08250        0.00006
H         -6.38480       -0.03764        0.00040
H         -5.41043       -1.23502       -0.89116
H         -5.41015       -1.23508        0.89156
H         -4.28731        1.03110       -0.88467
H         -4.28703        1.03104        0.88486
H         -0.82124       -1.28261        0.87711
H         -0.82115       -1.28265       -0.87744
H          0.65515        0.78533       -0.87950
H          0.65503        0.78540        0.87923
H          1.77210       -1.48126       -0.89084
H          1.77199       -1.48118        0.89089
