38
mol921_clust-35
C          6.45234       -1.66581        0.12555
C          6.61375       -0.14885        0.14451
C          5.45621        0.64946       -0.46351
C          4.08986        0.44397        0.20925
C          3.22323       -0.64141       -0.43218
C          1.95002       -0.97485        0.34895
C          1.01507        0.20337        0.63631
C          0.51510        0.92784       -0.61158
C         -0.41029        2.11393       -0.32710
C         -1.67389        1.79451        0.47670
C         -2.55130        0.71258       -0.15412
C         -3.84170        0.51785        0.62020
Br        -4.96524       -0.87622       -0.14777
H          6.27709       -2.03819       -0.89668
H          7.35509       -2.16277        0.51154
H          5.60722       -1.99433        0.75013
H          7.54010        0.12065       -0.39013
H          6.76238        0.18382        1.18697
H          5.72728        1.71646       -0.41659
H          5.37026        0.41167       -1.53927
H          3.53247        1.39494        0.18888
H          4.23759        0.21315        1.28072
H          2.96646       -0.32859       -1.45946
H          3.80891       -1.56632       -0.54973
H          1.38870       -1.74829       -0.20336
H          2.23491       -1.43713        1.31006
H          0.15497       -0.17869        1.21143
H          1.51535        0.92990        1.30099
H          0.00933        0.20286       -1.27378
H          1.37558        1.30227       -1.19023
H          0.15844        2.89006        0.21316
H         -0.70615        2.56867       -1.28798
H         -1.40193        1.49115        1.50247
H         -2.26217        2.72160        0.58631
H         -2.00865       -0.24548       -0.19173
H         -2.78563        0.98077       -1.19782
H         -3.65048        0.21500        1.65818
H         -4.45410        1.42911        0.62980
