38
mol921_clust-14
C         -6.92636       -1.58783       -0.37406
C         -5.43418       -1.41091       -0.11608
C         -4.97405        0.04286       -0.19143
C         -3.48197        0.22848        0.06877
C         -3.02542        1.68391       -0.01574
C         -1.55507        1.90796        0.33943
C         -0.56530        1.25297       -0.62325
C          0.90323        1.56520       -0.32738
C          1.39597        1.14807        1.06196
C          1.13948       -0.31633        1.43179
C          1.70677       -1.38993        0.49752
C          3.21558       -1.58671        0.51321
Br         4.23759       -0.28261       -0.52572
H         -7.22567       -2.64482       -0.31305
H         -7.52597       -1.02758        0.36095
H         -7.20312       -1.21917       -1.37462
H         -4.85926       -2.01015       -0.84361
H         -5.17937       -1.81938        0.87748
H         -5.22385        0.45323       -1.18661
H         -5.54967        0.64562        0.53424
H         -2.91545       -0.38655       -0.65165
H         -3.23307       -0.17173        1.06891
H         -3.21973        2.06731       -1.03378
H         -3.65255        2.29100        0.65968
H         -1.35220        2.99260        0.37069
H         -1.37934        1.53986        1.36577
H         -0.71621        0.15984       -0.62591
H         -0.79718        1.58367       -1.65057
H          1.07181        2.64972       -0.44237
H          1.53375        1.08568       -1.09413
H          2.47264        1.36883        1.13135
H          0.91283        1.77614        1.82925
H          1.52675       -0.49845        2.44935
H          0.05085       -0.48126        1.50053
H          1.36409       -1.23713       -0.53874
H          1.28250       -2.36034        0.80944
H          3.62049       -1.53759        1.53311
H          3.48930       -2.55445        0.07612
