20
mol910_clust-6
C         -3.17832       -1.02419        0.67329
C         -1.89023       -1.03098       -0.14512
C         -1.68071        0.23099       -0.99028
C         -1.37963        1.51599       -0.20157
C          0.09304        1.86825        0.03291
C          0.92430        0.92094        0.88952
Br         1.72842       -0.56586       -0.09426
H         -3.20495       -0.19482        1.39771
H         -4.06189       -0.92079        0.02298
H         -3.29166       -1.95790        1.24420
H         -1.02617       -1.18850        0.52000
H         -1.89938       -1.90322       -0.81905
H         -0.87097        0.05417       -1.71683
H         -2.59333        0.39021       -1.58975
H         -1.89764        1.48643        0.77300
H         -1.82132        2.37279       -0.73501
H          0.12020        2.84449        0.54758
H          0.60552        2.02540       -0.93041
H          1.78099        1.44183        1.33306
H          0.33506        0.46893        1.69893
