38
mol921_clust-28
C         -6.89945        1.60332        0.50993
C         -6.85291        0.72217       -0.73553
C         -5.97848       -0.52581       -0.59739
C         -4.49276       -0.24422       -0.38209
C         -3.64487       -1.51312       -0.31532
C         -2.14060       -1.26862       -0.18840
C         -1.72297       -0.55477        1.09793
C         -0.21196       -0.49374        1.32453
C          0.55710        0.29901        0.26961
C          2.04650        0.42053        0.57814
C          2.81684        1.19670       -0.48504
C          4.29702        1.37657       -0.20072
Br         5.29257       -0.30439       -0.21422
H         -5.91451        2.03409        0.74641
H         -7.59961        2.44184        0.37829
H         -7.22961        1.02770        1.38983
H         -6.49830        1.31858       -1.59456
H         -7.87812        0.40684       -0.99101
H         -6.35417       -1.14270        0.23932
H         -6.09521       -1.14528       -1.50348
H         -4.35860        0.33671        0.54525
H         -4.12124        0.39962       -1.20075
H         -3.98695       -2.13213        0.53392
H         -3.83275       -2.11499       -1.22119
H         -1.61573       -2.23858       -0.24061
H         -1.79824       -0.69166       -1.06519
H         -2.12635        0.47283        1.10426
H         -2.19107       -1.06874        1.95560
H          0.19342       -1.52051        1.37099
H         -0.01753       -0.04790        2.31523
H          0.43588       -0.17555       -0.71924
H          0.11419        1.30776        0.17805
H          2.18158        0.91259        1.55813
H          2.48294       -0.58717        0.68055
H          2.38868        2.21128       -0.57898
H          2.68927        0.71742       -1.47006
H          4.78025        2.00659       -0.95718
H          4.47122        1.81680        0.79019
