38
mol921_clust-33
C          7.20124       -1.38711       -0.91869
C          7.05559       -0.18651        0.01234
C          5.62092        0.32333        0.16481
C          4.65906       -0.67987        0.80229
C          3.27540       -0.11291        1.12312
C          2.47289        0.33608       -0.09636
C          1.06333        0.81016        0.24690
C          0.26061        1.25479       -0.97406
C         -1.12112        1.82801       -0.65804
C         -2.08460        0.83619       -0.00934
C         -3.48387        1.41146        0.18536
C         -4.46650        0.48538        0.87867
Br        -4.88574       -1.11213       -0.16499
H          8.25793       -1.66525       -1.04786
H          6.78956       -1.16615       -1.91688
H          6.67435       -2.27269       -0.53178
H          7.68504        0.63794       -0.36175
H          7.45607       -0.44392        1.00876
H          5.63101        1.24196        0.77755
H          5.24306        0.62538       -0.82773
H          5.11267       -1.06163        1.73375
H          4.54062       -1.55658        0.14193
H          2.69473       -0.87737        1.66773
H          3.38185        0.73817        1.82014
H          3.00610        1.14848       -0.61960
H          2.41124       -0.49854       -0.81832
H          0.53164       -0.00213        0.77202
H          1.12478        1.64672        0.96686
H          0.15016        0.40064       -1.66604
H          0.84217        2.01463       -1.52382
H         -1.00882        2.71125       -0.00320
H         -1.57349        2.20088       -1.59301
H         -1.69320        0.51204        0.97034
H         -2.14750       -0.07326       -0.63076
H         -3.90174        1.72872       -0.78470
H         -3.42027        2.32392        0.80584
H         -5.43016        0.97801        1.05586
H         -4.07482        0.11924        1.83711
