38
mol921_clust-30
C          7.27141       -2.49714       -0.05763
C          6.72681       -1.11358        0.27956
C          5.27491       -0.91327       -0.14780
C          4.72154        0.46890        0.18608
C          3.27126        0.66931       -0.24457
C          2.72194        2.05180        0.10200
C          1.30349        2.32151       -0.40130
C          0.22867        1.42282        0.20687
C         -1.18439        1.77982       -0.24522
C         -2.25866        0.87350        0.34823
C         -3.66770        1.23486       -0.11035
C         -4.77299        0.37809        0.47994
Br        -4.69244       -1.48642       -0.09823
H          8.31801       -2.60965        0.26243
H          6.68381       -3.28701        0.43681
H          7.23120       -2.68673       -1.14211
H          7.35429       -0.34188       -0.19952
H          6.81131       -0.93712        1.36607
H          5.18776       -1.08816       -1.23550
H          4.64442       -1.68435        0.33089
H          5.35392        1.23997       -0.28982
H          4.80529        0.64238        1.27412
H          3.18784        0.50796       -1.33482
H          2.64879       -0.11222        0.22425
H          2.75245        2.18982        1.19802
H          3.39874        2.81677       -0.31600
H          1.04556        3.37405       -0.19199
H          1.28131        2.21903       -1.50136
H          0.28617        1.48160        1.30903
H          0.42822        0.36848       -0.05000
H         -1.39915        2.83074        0.02060
H         -1.23645        1.73174       -1.34769
H         -2.04578       -0.17429        0.07763
H         -2.21140        0.91967        1.45110
H         -3.72737        1.20138       -1.21103
H         -3.88994        2.27837        0.17801
H         -4.72622        0.35106        1.57681
H         -5.76529        0.73355        0.17719
