38
mol921_clust-13
C         -4.37386       -1.19584        1.54318
C         -4.35679       -1.91280        0.19446
C         -3.26638       -1.46902       -0.79073
C         -3.57405       -0.23690       -1.64912
C         -3.74259        1.10276       -0.92434
C         -2.57916        1.50895       -0.01761
C         -1.22643        1.57941       -0.72277
C         -0.09616        2.13746        0.14533
C          0.15466        1.38021        1.45368
C          0.40448       -0.12333        1.29772
C          1.53468       -0.51069        0.33803
C          2.87634        0.06965        0.74885
Br         4.31733       -0.50488       -0.42966
H         -5.12189       -1.64259        2.21554
H         -3.39391       -1.27306        2.04173
H         -4.61430       -0.12740        1.45051
H         -5.34380       -1.81519       -0.29142
H         -4.22798       -2.99080        0.38655
H         -2.31854       -1.32219       -0.24230
H         -3.07177       -2.30243       -1.48524
H         -4.49198       -0.43554       -2.22894
H         -2.77132       -0.13660       -2.39927
H         -3.89114        1.88659       -1.68730
H         -4.67179        1.09109       -0.33122
H         -2.80404        2.49347        0.42866
H         -2.51588        0.80739        0.83039
H         -0.94782        0.57633       -1.08856
H         -1.32133        2.20625       -1.62634
H         -0.31601        3.19052        0.39090
H          0.83092        2.16018       -0.45286
H          1.00766        1.84879        1.97321
H         -0.70434        1.51783        2.13070
H          0.61050       -0.55415        2.29237
H         -0.51888       -0.61460        0.94858
H          1.29828       -0.18262       -0.68701
H          1.61536       -1.60820        0.29846
H          3.16429       -0.24748        1.76019
H          2.88490        1.16611        0.71079
