20
mol995_clust-4
C          3.64669       -1.70175       -0.07883
C          3.14708       -0.34925       -0.53002
O          1.98994       -0.02502        0.24126
C          1.37650        1.13146       -0.04751
O          1.76053        1.88155       -0.90392
C          0.18292        1.39670        0.84510
C         -0.41977        0.19555        1.56621
C         -0.99808       -0.88256        0.66559
Br        -2.49143       -0.25337       -0.42293
H          4.54472       -1.97842       -0.64936
H          3.90666       -1.68827        0.98945
H          2.88403       -2.47740       -0.24024
H          3.90443        0.43718       -0.38580
H          2.87902       -0.34402       -1.59795
H          0.51926        2.14094        1.58564
H         -0.56586        1.90894        0.22335
H          0.35516       -0.28864        2.18204
H         -1.20078        0.55127        2.25578
H         -1.39319       -1.71877        1.25466
H         -0.24939       -1.26792       -0.03706
