20
mol995_clust-3
C          2.46922        2.15843        0.34500
C          2.99990        1.09798       -0.59920
O          2.04760        0.04937       -0.78962
C          2.00456       -0.92403        0.12947
O          2.75052       -0.98690        1.07064
C          0.91162       -1.92441       -0.17721
C         -0.42201       -1.29182       -0.58283
C         -0.97627       -0.39878        0.51385
Br        -2.67516        0.40471        0.01353
H          3.18956        2.98566        0.42528
H          1.51563        2.56683       -0.02121
H          2.31830        1.73982        1.35015
H          3.17350        1.50720       -1.60325
H          3.93792        0.66741       -0.22025
H          1.27294       -2.56230       -1.00016
H          0.80831       -2.56546        0.70946
H         -0.28578       -0.70296       -1.50130
H         -1.14561       -2.08897       -0.81059
H         -0.30152        0.43935        0.73327
H         -1.15969       -0.95556        1.44219
