20
mol910_clust-3
C          3.65008       -1.33367       -0.00855
C          3.08449        0.07116        0.16672
C          1.59322        0.16337       -0.14864
C          1.03233        1.57066        0.04613
C         -0.41755        1.79715       -0.38775
C         -1.49734        1.10568        0.43347
Br        -1.80863       -0.76778       -0.03082
H          3.14005       -2.05224        0.65232
H          3.51907       -1.68794       -1.04331
H          4.72490       -1.36929        0.22378
H          3.63787        0.77647       -0.47808
H          3.25721        0.41261        1.20258
H          1.41571       -0.16137       -1.18942
H          1.04457       -0.55460        0.48250
H          1.13812        1.86101        1.10726
H          1.66219        2.27989       -0.51830
H         -0.54655        1.54163       -1.45250
H         -0.62796        2.87802       -0.30951
H         -1.26279        1.11514        1.50660
H         -2.47168        1.58668        0.28636
