38
mol921_clust-1
C          4.55286       -0.62123        0.97207
C          3.34079       -0.26766        0.11792
C          2.79398        1.13171        0.38968
C          1.55996        1.47181       -0.43978
C          1.00220        2.86691       -0.16897
C         -0.23583        3.22411       -0.99804
C         -1.42394        2.27244       -0.83355
C         -1.98339        2.21027        0.58682
C         -3.12265        1.20400        0.77354
C         -2.75827       -0.25113        0.46479
C         -1.62295       -0.80253        1.32401
C         -1.19195       -2.21417        0.97121
Br        -0.32432       -2.32057       -0.77787
H          4.92341       -1.63307        0.74958
H          5.38185        0.08384        0.79979
H          4.30753       -0.58406        2.04568
H          2.53823       -1.00739        0.28194
H          3.60385       -0.35006       -0.95099
H          2.54527        1.22333        1.46312
H          3.58585        1.87954        0.20166
H          0.78744        0.70886       -0.24502
H          1.79978        1.37642       -1.51434
H          0.77599        2.96347        0.90758
H          1.78875        3.61446       -0.36982
H         -0.55344        4.24971       -0.74161
H          0.04719        3.25094       -2.06435
H         -2.23032        2.58087       -1.52114
H         -1.12513        1.26375       -1.16351
H         -2.34248        3.21305        0.87543
H         -1.17194        1.97755        1.29642
H         -3.49110        1.27214        1.81185
H         -3.97087        1.49498        0.13078
H         -3.65171       -0.88298        0.60648
H         -2.48684       -0.35214       -0.59839
H         -1.93680       -0.81448        2.38357
H         -0.74102       -0.14438        1.27491
H         -0.45476       -2.60388        1.68327
H         -2.04235       -2.90751        0.92443
