38
mol921_clust-32
C         -7.60720       -2.10131       -0.41166
C         -6.86170       -0.98451        0.31048
C         -5.48234       -0.69784       -0.27778
C         -4.72874        0.41866        0.43889
C         -3.35096        0.70561       -0.15140
C         -2.59808        1.81640        0.57819
C         -1.25561        2.19663       -0.04700
C         -0.21229        1.08063       -0.04807
C          1.14758        1.53512       -0.57560
C          2.18994        0.42520       -0.70975
C          2.58037       -0.22773        0.61396
C          3.65587       -1.29349        0.50267
Br         5.39187       -0.58582       -0.04834
H         -8.59586       -2.28345        0.03536
H         -7.76110       -1.85422       -1.47416
H         -7.04289       -3.04664       -0.37165
H         -6.75266       -1.24231        1.37840
H         -7.46466       -0.06011        0.28494
H         -4.87648       -1.62179       -0.25275
H         -5.58873       -0.43838       -1.34671
H         -4.61985        0.15814        1.50718
H         -5.33550        1.34177        0.41599
H         -2.75676       -0.22444       -0.13759
H         -3.45909        0.97888       -1.21690
H         -3.23941        2.71371        0.61587
H         -2.43900        1.51635        1.62986
H         -1.41993        2.53979       -1.08444
H         -0.84331        3.06508        0.49504
H         -0.56676        0.23300       -0.66047
H         -0.10994        0.69131        0.98044
H          1.00500        2.00396       -1.56406
H          1.54550        2.33119        0.07915
H          1.81295       -0.35240       -1.39852
H          3.09579        0.83895       -1.18110
H          1.70206       -0.72405        1.06266
H          2.90109        0.54318        1.33497
H          3.83668       -1.78673        1.46530
H          3.39645       -2.05721       -0.24268
