38
mol921_clust-7
C          2.91329       -3.29592       -0.84537
C          3.83313       -2.54627        0.11472
C          3.60089       -1.03452        0.15902
C          2.21783       -0.62568        0.66434
C          2.02920        0.87909        0.85847
C          2.18096        1.70046       -0.42235
C          1.73287        3.15977       -0.30374
C          0.27796        3.41773        0.11043
C         -0.80587        2.82889       -0.80497
C         -1.17094        1.35463       -0.59356
C         -1.83762        1.06138        0.74849
C         -1.95543       -0.41405        1.08174
Br        -3.07699       -1.40718       -0.17212
H          2.98816       -2.88665       -1.86589
H          1.85781       -3.23138       -0.53975
H          3.17421       -4.36359       -0.89438
H          4.88165       -2.73333       -0.17040
H          3.71858       -2.96024        1.13208
H          4.36562       -0.57197        0.80747
H          3.76612       -0.61797       -0.85007
H          2.02319       -1.13899        1.62273
H          1.44484       -0.98929       -0.03664
H          1.02815        1.04512        1.28805
H          2.74235        1.25077        1.61600
H          3.23691        1.69108       -0.73892
H          1.62975        1.20782       -1.24193
H          2.38935        3.67377        0.42005
H          1.91144        3.65523       -1.27371
H          0.14217        4.51088        0.14269
H          0.11725        3.08461        1.14977
H         -1.72808        3.42334       -0.68560
H         -0.49741        2.97051       -1.85519
H         -1.85222        1.03957       -1.39962
H         -0.27999        0.71641       -0.69465
H         -2.83133        1.53747        0.79312
H         -1.24860        1.50676        1.56987
H         -0.97463       -0.90886        1.05801
H         -2.40835       -0.57299        2.06780
