38
mol921_clust-4
C         -4.55867       -1.06321        1.19974
C         -3.95746       -1.16939       -0.19910
C         -2.74392       -0.26772       -0.43247
C         -3.04065        1.22953       -0.33912
C         -1.87462        2.12850       -0.75304
C         -0.63788        2.00707        0.13433
C          0.49822        2.93627       -0.28647
C          1.72305        2.89681        0.63229
C          2.32592        1.50694        0.85436
C          2.74005        0.79569       -0.43165
C          3.42231       -0.55486       -0.21668
C          2.62959       -1.57785        0.58017
Br         0.89529       -2.00240       -0.21597
H         -3.80011       -1.27019        1.97199
H         -5.37995       -1.78258        1.33706
H         -4.96580       -0.05939        1.39582
H         -3.65948       -2.21475       -0.38421
H         -4.73292       -0.93812       -0.95075
H         -1.95408       -0.54005        0.28877
H         -2.32387       -0.48289       -1.43088
H         -3.91243        1.45908       -0.97690
H         -3.34259        1.48833        0.69088
H         -1.59183        1.89917       -1.79661
H         -2.21361        3.17902       -0.75578
H         -0.91765        2.21864        1.18309
H         -0.28232        0.96367        0.11914
H          0.79708        2.69089       -1.32072
H          0.12421        3.97378       -0.32738
H          1.44827        3.31871        1.61428
H          2.49826        3.56591        0.22034
H          3.20332        1.60051        1.51829
H          1.59822        0.88458        1.40237
H          1.85721        0.64310       -1.07367
H          3.42473        1.44426       -1.00412
H          4.37027       -0.40836        0.33277
H          3.69335       -0.98958       -1.19198
H          3.16351       -2.53354        0.64545
H          2.40728       -1.23286        1.59752
