20
mol910_clust-4
C          4.73143       -0.44491       -0.21650
C          3.33074       -0.57241        0.37167
C          2.32818        0.40470       -0.23724
C          0.92406        0.27807        0.34600
C         -0.07089        1.25648       -0.26976
C         -1.47389        1.19065        0.30591
Br        -2.38060       -0.49891       -0.06853
H          4.72537       -0.63228       -1.30202
H          5.13903        0.56631       -0.05845
H          5.42901       -1.16143        0.24196
H          2.96121       -1.60275        0.23025
H          3.37163       -0.41487        1.46353
H          2.69482        1.43788       -0.09672
H          2.28391        0.24725       -1.32999
H          0.96325        0.43807        1.43853
H          0.55740       -0.75207        0.20156
H         -0.11660        1.11235       -1.36216
H          0.28642        2.29015       -0.11057
H         -1.47092        1.28993        1.39961
H         -2.12134        1.96787       -0.11764
