24
arbr4283_conf-3
C          2.20593       -2.69007       -1.04776
O          1.40706       -2.38387        0.10267
C          0.73405       -1.18967        0.04193
C         -0.66146       -1.21151        0.03913
C         -1.35130       -0.00337        0.05232
Br        -3.26270       -0.02616        0.05423
C         -0.69012        1.22016        0.05016
C          0.70671        1.23521        0.05882
O          1.34194        2.44579        0.14255
C          2.16838        2.78754       -0.97703
C          1.42792        0.03086        0.05653
O          2.80445        0.05269        0.08001
C          3.34760       -0.13966        1.39388
H          1.57784       -2.75449       -1.94436
H          2.65677       -3.66403       -0.85116
H          2.98685       -1.94039       -1.19795
H         -1.17691       -2.16322        0.03712
H         -1.22855        2.15901        0.05893
H          2.56771        3.78036       -0.76366
H          2.98693        2.07402       -1.09728
H          1.57221        2.82647       -1.89690
H          4.43293       -0.10123        1.28638
H          3.01548        0.65869        2.06619
H          3.04930       -1.11343        1.79504
