21
arbr3132_conf-2
C         -4.39286       -1.42153        0.88301
C         -3.74472       -1.28124       -0.48412
O         -2.37398       -0.83094       -0.36899
C         -2.19373        0.49896       -0.22391
O         -3.10087        1.30819       -0.20625
C         -0.75339        0.86100       -0.09141
C         -0.42822        2.21442        0.05208
C          0.90360        2.59742        0.17979
C          1.91804        1.63887        0.16687
C          1.57733        0.29479        0.02405
Br         2.96322       -1.02097        0.00685
C          0.25422       -0.11077       -0.10584
H         -3.81104       -2.09287        1.52076
H         -5.40065       -1.83503        0.77508
H         -4.47089       -0.44685        1.36925
H         -4.29360       -0.57521       -1.11121
H         -3.66961       -2.24268       -0.99606
H         -1.23159        2.94163        0.06007
H          1.16111        3.64574        0.29079
H          2.95808        1.92654        0.26614
H          0.00259       -1.15685       -0.21579
