15
arbr1883_conf-1
Br        -2.25731       -0.36971        0.00000
C         -0.64243        0.57279       -0.00000
C         -0.36393        1.92492        0.00000
N          0.97885        2.15134       -0.00001
C          1.54859        0.94623        0.00000
C          2.90646        0.56066        0.00001
C          3.23396       -0.77316        0.00000
C          2.21389       -1.76654       -0.00000
C          0.89641       -1.40966       -0.00000
N          0.57386       -0.07511       -0.00000
H         -1.08503        2.72976        0.00000
H          3.65395        1.34483        0.00000
H          4.27447       -1.07797        0.00000
H          2.46988       -2.81921       -0.00000
H          0.06570       -2.10272       -0.00001
