14
arbr4592_conf-2
C          4.20387       -0.49533       -0.00000
O          3.27062        0.57844       -0.00000
C          1.95593        0.27977        0.00001
C          1.43949       -1.03073        0.00000
C          0.06584       -1.15882        0.00000
C         -0.67736        0.02578       -0.00000
Br        -2.58264       -0.06496       -0.00000
N         -0.14388        1.23491       -0.00000
N          1.18080        1.36817        0.00000
H          5.18908       -0.03026       -0.00001
H          4.09833       -1.11978       -0.89532
H          4.09834       -1.11978        0.89531
H          2.07915       -1.90402        0.00000
H         -0.42246       -2.12559        0.00000
