24
arbr4283_conf-2
C          2.42097       -2.76541       -0.88167
O          1.63565       -2.37048        0.25042
C          0.90138       -1.22561        0.08479
C         -0.49436       -1.32289        0.12914
C         -1.24236       -0.15973        0.03110
Br        -3.15109       -0.27028        0.09734
C         -0.65597        1.09639       -0.12003
C          0.73855        1.18256       -0.16740
O          1.43308        2.34637       -0.28830
C          0.69022        3.55250       -0.38753
C          1.52493        0.01727       -0.06952
O          2.89358        0.10308       -0.13920
C          3.51141        0.41017        1.11486
H          1.77668       -2.95064       -1.74984
H          2.91581       -3.69471       -0.59458
H          3.16582       -2.00590       -1.13014
H         -0.95607       -2.29410        0.24856
H         -1.28062        1.97512       -0.19136
H          1.42713        4.35067       -0.47938
H          0.04249        3.55231       -1.27256
H          0.07784        3.72288        0.50658
H          4.58696        0.43365        0.93071
H          3.18246        1.38858        1.48078
H          3.28253       -0.36130        1.85881
