20
arbr2665_conf2
C          4.02260       -1.42794        0.84220
C          3.83309       -0.61683       -0.45235
C          2.90495        0.56730       -0.23092
O          3.36185        1.68819       -0.06069
C          1.42518        0.33862       -0.17279
C          0.60366        1.43305        0.13611
C         -0.77633        1.29321        0.20763
C         -1.34070        0.03979       -0.03366
Br        -3.23374       -0.16563        0.06222
C         -0.55078       -1.06497       -0.34354
C          0.83165       -0.90859       -0.41145
H          4.72424       -2.25072        0.67954
H          4.42337       -0.79041        1.63530
H          3.07824       -1.85092        1.19644
H          3.45423       -1.26302       -1.25151
H          4.79071       -0.20502       -0.77890
H          1.07720        2.39160        0.31658
H         -1.41168        2.13784        0.44648
H         -1.01114       -2.02805       -0.52870
H          1.44088       -1.77152       -0.65472
