18
arbr4696_conf-2
C          4.08854        0.11540       -0.00002
O          3.23607       -1.03234       -0.00000
C          1.91371       -0.81832        0.00002
N          1.17422       -1.92911        0.00001
C         -0.14823       -1.73232        0.00000
C         -0.72864       -0.47132        0.00001
Br        -2.60809       -0.24219       -0.00001
C          0.15213        0.62392        0.00001
O         -0.35271        1.85942        0.00000
C          0.57921        2.94901        0.00000
N          1.47124        0.44604        0.00001
H          3.92011        0.73015        0.88847
H          5.10368       -0.28107       -0.00005
H          3.92006        0.73016       -0.88849
H         -0.77864       -2.61768       -0.00000
H          1.21383        2.91666        0.88895
H         -0.03527        3.84840       -0.00001
H          1.21385        2.91665       -0.88894
