18
arbr3314_conf-1
C         -3.65615       -1.12723        0.00002
C         -2.80855        0.12880       -0.00001
O         -1.43272       -0.29738       -0.00001
C         -0.48957        0.65678       -0.00001
N         -0.84015        1.93831       -0.00001
C          0.12597        2.86966        0.00000
C          1.48030        2.56649        0.00001
C          1.85150        1.21697        0.00001
C          0.86200        0.24985       -0.00000
Br         1.30984       -1.59732       -0.00000
H         -3.45084       -1.73353        0.88633
H         -4.71688       -0.85932        0.00002
H         -3.45085       -1.73355       -0.88629
H         -2.99218        0.75124        0.88168
H         -2.99219        0.75122       -0.88171
H         -0.21311        3.90275        0.00000
H          2.22771        3.35153        0.00001
H          2.89372        0.91870        0.00001
