24
arbr4283_conf-5
C         -2.48929        2.82633        0.03558
O         -1.24599        2.45069       -0.55816
C         -0.69359        1.23862       -0.27462
C          0.70729        1.21896       -0.22615
C          1.37163        0.02592        0.01407
Br         3.28127        0.02280        0.09291
C          0.68407       -1.16989        0.19908
C         -0.70661       -1.15104        0.13719
O         -1.38489       -2.33637        0.31066
C         -1.97724       -2.85124       -0.88957
C         -1.41530        0.04442       -0.08780
O         -2.78770        0.03569       -0.20161
C         -3.49582       -0.30487        0.99898
H         -3.33541        2.35036       -0.46191
H         -2.54967        3.91050       -0.07715
H         -2.50681        2.57714        1.10308
H          1.24185        2.14934       -0.36696
H          1.19658       -2.10650        0.37548
H         -2.46426       -3.78725       -0.61138
H         -2.71474       -2.15357       -1.29696
H         -1.20564       -3.05017       -1.64249
H         -4.55566       -0.28911        0.73955
H         -3.21136       -1.29752        1.35471
H         -3.30175        0.43550        1.78427
