18
arbr3128_conf-3
C          5.37947       -1.01425       -0.00019
C          4.45305        0.18398       -0.00013
O          3.09775       -0.32141        0.00003
C          2.12922        0.61862        0.00013
O          2.33793        1.81769       -0.00004
C          0.79227        0.01539        0.00015
C          0.42816       -1.31072        0.00023
C         -0.97908       -1.50240        0.00015
C         -1.64881       -0.30482        0.00003
Br        -3.51387       -0.06731       -0.00011
S         -0.59660        1.07238        0.00015
H          5.21685       -1.63265       -0.88724
H          6.42050       -0.67794       -0.00032
H          5.21705       -1.63258        0.88694
H          4.59256        0.81551        0.88231
H          4.59236        0.81544       -0.88266
H          1.15651       -2.11144        0.00030
H         -1.47594       -2.46358        0.00016
