10
arbr5737_conf-1
F         -3.72194       -0.00001        0.00001
C         -2.38188        0.00000        0.00001
C         -1.67061        1.19365        0.00001
N         -0.33370        1.19475       -0.00002
C          0.24812        0.00001       -0.00003
Br         2.15382       -0.00000        0.00001
N         -0.33370       -1.19475       -0.00001
C         -1.67060       -1.19364       -0.00001
H         -2.18228        2.15243        0.00000
H         -2.18228       -2.15242        0.00001
