17
arbr1409_conf-1
N         -2.97012       -0.61989        1.48162
S         -2.55021       -0.44746       -0.14888
O         -2.28685       -1.78429       -0.68738
O         -3.53188        0.46431       -0.74132
C         -0.98405        0.41841       -0.07271
C         -0.97911        1.81129       -0.02366
C          0.24533        2.47289        0.04618
C          1.44028        1.75267        0.06354
C          1.39998        0.36038        0.00331
Br         3.03386       -0.62348        0.01093
C          0.19248       -0.32801       -0.06884
H         -2.95613       -1.60422        1.73510
H         -3.88761       -0.20875        1.63179
H         -1.91526        2.35552       -0.05671
H          0.27400        3.55693        0.08150
H          2.39460        2.26305        0.11596
H          0.15990       -1.40790       -0.13670
