21
arbr3151_conf-3
C          3.83927       -1.20789       -0.00018
C          3.35318        0.22720        0.00005
O          1.91066        0.18317        0.00001
C          1.28370        1.37874        0.00006
O          1.86276        2.44846        0.00009
C         -0.17514        1.24029        0.00001
C         -1.09410        2.31791       -0.00005
N         -2.35478        1.90377       -0.00009
N         -2.27727        0.54351       -0.00005
C         -3.48917       -0.25470       -0.00004
C         -0.99431        0.11356        0.00002
Br        -0.60394       -1.71326        0.00004
H          3.47999       -1.73807       -0.88646
H          3.47996       -1.73836        0.88591
H          4.93301       -1.23271       -0.00016
H          3.69064        0.77968       -0.88220
H          3.69061        0.77939        0.88249
H         -0.85531        3.37144       -0.00006
H         -3.53055       -0.88751       -0.88995
H         -3.53016       -0.88803        0.88950
H         -4.32373        0.44360        0.00033
