15
arbr3763_conf-2
C          3.81425       -0.91204       -0.00019
O          2.75555        0.06156        0.00001
C          1.50089       -0.46006        0.00026
O          1.25481       -1.64566        0.00008
C          0.50506        0.61467        0.00012
N          0.83281        1.93936        0.00006
N         -0.22934        2.75478       -0.00003
C         -1.28757        1.93787       -0.00009
C         -0.88553        0.58855       -0.00000
Br        -1.99738       -0.91500       -0.00002
H          3.75103       -1.54338        0.88875
H          4.73999       -0.33835       -0.00036
H          3.75070       -1.54338       -0.88910
H          1.76873        2.31582        0.00010
H         -2.29192        2.33424       -0.00018
