20
arbr2665_conf1
C          5.18017       -0.58633       -0.00003
C          3.68827       -0.90362        0.00000
C          2.81869        0.34560        0.00003
O          3.31880        1.46033       -0.00001
C          1.32894        0.18445        0.00002
C          0.69727       -1.06672        0.00002
C         -0.69211       -1.16280        0.00001
C         -1.44966        0.00653        0.00000
Br        -3.35251       -0.11630       -0.00001
C         -0.84637        1.26471        0.00000
C          0.54058        1.34428        0.00001
H          5.76907       -1.50754       -0.00005
H          5.45215        0.00202       -0.87952
H          5.45219        0.00201        0.87945
H          3.41643       -1.51100        0.87379
H          3.41639       -1.51099       -0.87378
H          1.28261       -1.97927        0.00002
H         -1.18300       -2.12858        0.00001
H         -1.45694        2.15984       -0.00000
H          1.04402        2.30462        0.00001
