18
arbr4907_conf-1
C         -3.37956       -1.46637        0.01268
C         -2.23044       -0.48932       -0.01077
C         -2.45209        0.89191       -0.01054
C         -1.38575        1.78694       -0.00232
C         -0.05412        1.35316        0.00342
C          1.08892        2.33058        0.00835
C          0.14434       -0.03199       -0.00033
Br         1.93363       -0.72252       -0.00045
C         -0.90768       -0.94237       -0.00866
H         -4.23345       -1.08860       -0.55721
H         -3.72490       -1.64440        1.03825
H         -3.09069       -2.43335       -0.40791
H         -3.47023        1.27083       -0.01829
H         -1.58289        2.85532       -0.00432
H          0.72058        3.35898        0.01332
H          1.72776        2.18536        0.88567
H          1.72818        2.19420       -0.87015
H         -0.69313       -2.00542       -0.01459
