15
arbr5469_conf-1
F          3.46872        1.09094       -0.60117
C          2.94850        0.00001        0.00352
F          3.40966       -0.00065        1.27596
F          3.46866       -1.09037       -0.60223
C          1.44635        0.00005       -0.04064
C          0.75038       -1.21015       -0.03243
C         -0.64204       -1.21550       -0.01768
C         -1.32359        0.00002       -0.00891
Br        -3.23019       -0.00001        0.00998
C         -0.64207        1.21554       -0.01768
C          0.75036        1.21022       -0.03243
H          1.29549       -2.14693       -0.04673
H         -1.19250       -2.14844       -0.01570
H         -1.19254        2.14847       -0.01569
H          1.29545        2.14701       -0.04671
