21
arbr3119_conf-2
C         -5.13939       -0.50971        0.97374
C         -4.53840       -0.59838       -0.41911
O         -3.09561       -0.69275       -0.36131
C         -2.42779        0.47379       -0.22226
O         -2.97028        1.56088       -0.16535
C         -0.95509        0.27285       -0.15063
C         -0.14611        1.40752       -0.01667
C          1.23682        1.28289        0.05627
C          1.80255        0.00966       -0.00525
Br         3.69872       -0.17284        0.09462
C          1.01546       -1.13345       -0.13768
C         -0.36771       -0.99683       -0.21034
H         -4.82591       -1.35981        1.58619
H         -4.82926        0.41572        1.46349
H         -6.23207       -0.51604        0.90782
H         -4.84736       -1.51000       -0.93467
H         -4.80890        0.27148       -1.02173
H         -0.62104        2.38104        0.02823
H          1.87061        2.15541        0.15956
H          1.48056       -2.11087       -0.18277
H         -0.99686       -1.87247       -0.31303
