17
arbr1696_conf-1
Br        -2.31626       -0.51114       -0.00000
C         -0.69590        0.49846        0.00000
C         -0.76639        1.86883       -0.00000
C          0.44646        2.59859        0.00000
N          1.64371        2.05194        0.00000
C          1.71701        0.69046       -0.00000
C          3.00414        0.09302       -0.00000
C          3.14449       -1.27448        0.00000
C          2.00175       -2.11038        0.00000
C          0.73782       -1.56784        0.00000
C          0.56033       -0.16187        0.00000
H         -1.71958        2.38274       -0.00000
H          0.40542        3.68665       -0.00000
H          3.85935        0.75978       -0.00000
H          4.13465       -1.71930        0.00000
H          2.12489       -3.18870        0.00000
H         -0.14004       -2.20348        0.00000
