21
arbr3151_conf-2
C          4.38155       -0.36078        0.91620
C          3.86610        0.07463       -0.44564
O          2.58978        0.74434       -0.33274
C          1.50305       -0.06211       -0.25235
O          1.55143       -1.27703       -0.28779
C          0.27884        0.72945       -0.12196
C          0.11686        2.13635       -0.07239
N         -1.15683        2.48939        0.05355
N         -1.84594        1.31381        0.08795
C         -3.29077        1.31791        0.22192
C         -1.02240        0.24709       -0.01362
Br        -1.68225       -1.49567        0.00575
H          4.44337        0.49235        1.59778
H          5.38136       -0.79517        0.81498
H          3.72045       -1.11467        1.34888
H          3.75696       -0.78041       -1.11672
H          4.52117        0.81741       -0.90592
H          0.89093        2.88764       -0.12496
H         -3.75505        0.82839       -0.63758
H         -3.59146        0.79621        1.13377
H         -3.59858        2.36057        0.26943
