21
arbr3132_conf-3
C          5.45189        0.29326        0.00009
C          4.30523       -0.69642       -0.00001
O          3.07794        0.06744       -0.00003
C          1.93991       -0.65714       -0.00004
O          1.91811       -1.87216       -0.00003
C          0.72266        0.20413       -0.00003
C          0.79327        1.60194       -0.00003
C         -0.38105        2.35133       -0.00001
C         -1.62482        1.71929       -0.00000
C         -1.67678        0.32568       -0.00000
Br        -3.37811       -0.54272        0.00002
C         -0.51926       -0.44125       -0.00002
H          5.41590        0.93171       -0.88697
H          6.40526       -0.24331        0.00010
H          5.41582        0.93162        0.88720
H          4.31572       -1.34343        0.88218
H          4.31580       -1.34334       -0.88226
H          1.76139        2.08679       -0.00004
H         -0.33384        3.43552       -0.00002
H         -2.54239        2.29583        0.00001
H         -0.55443       -1.52341       -0.00002
