12
arbr1547_conf-1
Br        -1.80850       -0.00000       -0.00000
C          0.10338       -0.00000        0.00000
C          0.78372       -1.21549        0.00000
C          2.17867       -1.20724       -0.00000
C          2.87837       -0.00000        0.00000
C          2.17867        1.20724        0.00000
C          0.78372        1.21549       -0.00000
H          0.23097       -2.14774        0.00000
H          2.71633       -2.15042       -0.00000
H          3.96367        0.00000        0.00000
H          2.71634        2.15041       -0.00000
H          0.23097        2.14774       -0.00000
