21
arbr3132_conf-4
C         -4.88279       -0.67564        0.94404
C         -4.38906       -0.20546       -0.41381
O         -3.09899        0.44207       -0.30529
C         -2.02471       -0.37509       -0.27232
O         -2.09254       -1.58662       -0.34631
C         -0.74721        0.38220       -0.13881
C         -0.70864        1.77821       -0.04561
C          0.51782        2.42693        0.07902
C          1.70589        1.69624        0.11136
C          1.64918        0.30598        0.01759
Br         3.27392       -0.69745        0.06182
C          0.43805       -0.36163       -0.10663
H         -4.22525       -1.45224        1.34031
H         -5.89047       -1.09244        0.84853
H         -4.91954        0.15649        1.65273
H         -5.04038        0.56193       -0.83709
H         -4.30423       -1.03944       -1.11394
H         -1.63389        2.33985       -0.07091
H          0.55519        3.50906        0.15186
H          2.66346        2.19429        0.20800
H          0.38898       -1.44076       -0.17931
