20
arbr4632_conf-4
C          2.85986       -0.34085        1.02459
O          2.41786        0.18806       -0.22979
C          1.21698        0.84697       -0.17431
C          1.20776        2.24311       -0.15297
C         -0.00067        2.93639       -0.15081
C         -1.20878        2.24256       -0.15302
C         -1.21736        0.84641       -0.17433
O         -2.41796        0.18698       -0.22982
C         -2.85983       -0.34199        1.02458
C         -0.00003        0.15171       -0.18898
Br         0.00043       -1.74742       -0.29159
H          3.81753       -0.82595        0.83065
H          2.99648        0.46261        1.75886
H          2.15056       -1.07845        1.41381
H          2.16097        2.76009       -0.15425
H         -0.00091        4.02144       -0.14379
H         -2.16222        2.75910       -0.15432
H         -3.81727       -0.82753        0.83060
H         -2.99687        0.46148        1.75875
H         -2.15025       -1.07925        1.41394
