18
arbr3128_conf-2
C         -4.72536       -0.96585        0.90699
C         -4.09295       -0.88532       -0.47195
O         -2.66409       -0.67293       -0.37825
C         -2.26059        0.60498       -0.19485
O         -3.00650        1.56278       -0.12893
C         -0.79985        0.69343       -0.08797
C         -0.08168        1.85089        0.09633
C          1.31997        1.63644        0.16558
C          1.63268        0.30732        0.03145
Br         3.35521       -0.44679        0.06082
S          0.24193       -0.70625       -0.18100
H         -4.62728       -0.01052        1.42707
H         -5.79058       -1.20022        0.81390
H         -4.25073       -1.74827        1.50569
H         -4.18988       -1.82568       -1.01799
H         -4.52784       -0.07461       -1.06078
H         -0.56699        2.81552        0.17680
H          2.06153        2.41152        0.30648
