18
arbr3128_conf-1
C          4.53228       -1.95509       -0.00002
C          4.18233       -0.48146       -0.00001
O          2.74008       -0.38227        0.00001
C          2.23626        0.87173        0.00000
O          2.91199        1.88174       -0.00002
C          0.76843        0.86011        0.00001
C         -0.03884        1.97248        0.00001
C         -1.42406        1.66057        0.00000
C         -1.63449        0.30498        0.00000
Br        -3.29883       -0.57095       -0.00001
S         -0.16561       -0.61672        0.00005
H          4.12851       -2.45105       -0.88686
H          5.61935       -2.07803       -0.00003
H          4.12853       -2.45105        0.88684
H          4.56884        0.03660        0.88277
H          4.56882        0.03660       -0.88280
H          0.37213        2.97431        0.00000
H         -2.22523        2.38765       -0.00001
