11
arbr1648_conf-1
Br         1.79410        0.00462       -0.00000
C         -0.11192        0.01502        0.00000
C         -0.80971        1.21854        0.00000
C         -2.20174        1.15902        0.00000
C         -2.81989       -0.09152       -0.00001
N         -2.14537       -1.24785       -0.00000
C         -0.81057       -1.19304        0.00001
H         -0.28070        2.16457        0.00000
H         -2.79478        2.06760        0.00001
H         -3.90451       -0.16995       -0.00000
H         -0.27278       -2.13722       -0.00000
