17
arbr4008_conf-1
C         -3.40007       -0.57876       -0.27546
O         -1.98992       -0.30255       -0.33589
C         -1.19460       -1.28740        0.09939
O         -1.60169       -2.36363        0.48815
C          0.26783       -0.95946        0.01843
C          1.12996       -2.06455       -0.01217
C          2.50210       -1.87145       -0.09919
N          3.06877       -0.65787       -0.14461
C          2.26064        0.39980       -0.09653
C          0.86450        0.30784       -0.01810
Br        -0.07712        1.95895        0.08876
H         -3.70046       -0.80063        0.75068
H         -3.88680        0.32631       -0.63509
H         -3.64737       -1.43219       -0.91062
H          0.69879       -3.05741        0.03563
H          3.17812       -2.72182       -0.13246
H          2.72614        1.38112       -0.11894
