15
arbr1488_conf-1
Br         2.18107       -0.26900        0.00000
C          0.43675        0.50076       -0.00000
C          0.23788        1.86811       -0.00001
C         -1.07277        2.39972       -0.00001
C         -2.18938        1.57971       -0.00001
C         -1.99863        0.18682        0.00000
C         -2.83030       -0.97808        0.00004
N         -2.11369       -2.08937       -0.00005
N         -0.81212       -1.69473        0.00001
C         -0.68094       -0.33983        0.00000
H          1.09387        2.53287       -0.00000
H         -1.19348        3.47797       -0.00000
H         -3.18847        2.00294        0.00000
H         -3.91008       -1.03271        0.00005
H         -0.07433       -2.38057        0.00002
