13
arbr5972_conf-1
N          4.78593        0.00000        0.00004
C          3.62295        0.00000       -0.00002
C          2.19090       -0.00000       -0.00001
C          1.48808        1.21537       -0.00001
C          0.09771        1.21655       -0.00001
C         -0.58414       -0.00000       -0.00000
Br        -2.48775        0.00000        0.00001
C          0.09771       -1.21655       -0.00001
C          1.48808       -1.21537       -0.00001
H          2.03438        2.15178       -0.00001
H         -0.45341        2.14904       -0.00000
H         -0.45341       -2.14904       -0.00000
H          2.03437       -2.15178       -0.00001
