20
arbr3150_conf-2
C          4.89625       -0.62482        0.94590
C          4.39370       -0.16643       -0.41235
O          3.08662        0.45104       -0.30422
C          2.03309       -0.38754       -0.27312
O          2.11682       -1.59763       -0.34740
C          0.74158        0.34418       -0.14043
C          0.65817        1.73821       -0.04361
N         -0.50048        2.39484        0.07708
C         -1.62804        1.67872        0.10557
C         -1.63682        0.28407        0.01543
Br        -3.29369       -0.65258        0.06538
C         -0.43900       -0.40342       -0.10921
H          4.25822       -1.41784        1.34169
H          4.91244        0.20777        1.65465
H          5.91381       -1.01664        0.85061
H          5.02512        0.61750       -0.83467
H          4.32790       -1.00092       -1.11374
H          1.56119        2.33921       -0.06412
H         -2.56177        2.22564        0.20350
H         -0.39537       -1.48340       -0.18191
