16
arbr4505_conf-1
C         -4.25005       -0.62574        0.00001
O         -3.38956        0.50227       -0.00001
C         -2.04510        0.27947       -0.00000
C         -1.23870        1.42656       -0.00000
C          0.14490        1.31253        0.00000
C          0.72878        0.04485       -0.00000
Br         2.63394       -0.11525        0.00000
C         -0.05760       -1.09998       -0.00000
C         -1.44993       -0.98681       -0.00001
H         -5.26594       -0.22989        0.00002
H         -4.10276       -1.24526       -0.89363
H         -4.10274       -1.24525        0.89365
H         -1.71922        2.39861        0.00000
H          0.76829        2.19888        0.00000
H          0.40737       -2.07886       -0.00001
H         -2.05019       -1.88775       -0.00001
