10
arbr1959_conf-1
Br        -1.78089        0.00000        0.00000
C          0.11782       -0.00001       -0.00000
C          0.83736        1.19295       -0.00001
N          2.17387        1.19670       -0.00001
C          2.77076        0.00000        0.00005
N          2.17388       -1.19670       -0.00001
C          0.83737       -1.19296       -0.00001
H          0.32958        2.15388       -0.00001
H          3.85778        0.00001       -0.00008
H          0.32959       -2.15389       -0.00001
