24
arbr4283_conf-4
C          2.77935       -2.67461        0.18635
O          1.47902       -2.46823       -0.36548
C          0.85258       -1.26816       -0.22065
C         -0.54732       -1.34273       -0.13198
C         -1.28053       -0.17607       -0.02854
Br        -3.18551       -0.27808        0.10808
C         -0.67979        1.08234       -0.01167
C          0.70951        1.15299       -0.11550
O          1.40649        2.32448       -0.15560
C          0.67019        3.53806       -0.11950
C          1.49352       -0.01921       -0.21538
O          2.85168        0.06382       -0.40837
C          3.60933        0.58408        0.68889
H          3.55692       -2.21989       -0.42862
H          2.91161       -3.75793        0.21864
H          2.84249       -2.27685        1.20597
H         -1.01709       -2.31721       -0.13785
H         -1.28956        1.97057        0.06407
H          0.10724        3.64014        0.81636
H          1.40867        4.33732       -0.18660
H         -0.02250        3.60981       -0.96639
H          4.65642        0.52704        0.38615
H          3.34164        1.62174        0.89849
H          3.45863       -0.02286        1.59058
