18
arbr3128_conf-4
C          5.02323       -0.01292        0.99650
C          4.47090        0.30050       -0.38370
O          3.07628        0.68522       -0.31444
C          2.18700       -0.32990       -0.25710
O          2.48297       -1.51084       -0.28054
C          0.81036        0.16712       -0.16631
C          0.34475        1.46060       -0.12825
C         -1.07004        1.54116       -0.03448
C         -1.64286        0.29462       -0.00351
Br        -3.47973       -0.08840        0.11527
S         -0.48894       -0.99568       -0.08683
H          4.52412       -0.88883        1.41634
H          6.09469       -0.22635        0.92760
H          4.88321        0.83556        1.67215
H          4.96542        1.16527       -0.83068
H          4.56443       -0.55882       -1.05140
H          1.00699        2.31589       -0.16661
H         -1.63937        2.46026        0.00819
