20
arbr4632_conf-3
C         -3.09483       -0.27733        0.51467
O         -2.33687        0.17036       -0.61440
C         -1.18178        0.83408       -0.29079
C         -1.17314        2.23043       -0.29028
C         -0.00044        2.92435       -0.00004
C          1.17247        2.23079        0.29024
C          1.18152        0.83444        0.29082
O          2.33680        0.17106        0.61444
C          3.09478       -0.27657       -0.51464
C         -0.00002        0.13902        0.00003
Br         0.00031       -1.76264       -0.00001
H         -3.97842       -0.77399        0.11137
H         -2.52093       -0.98782        1.11848
H         -3.40169        0.57109        1.13851
H         -2.09699        2.74744       -0.52524
H         -0.00060        4.00943       -0.00007
H          2.09617        2.74809        0.52516
H          3.97854       -0.77294       -0.11135
H          3.40137        0.57184       -1.13862
H          2.52101       -0.98729       -1.11830
