14
arbr4592_conf-1
C         -4.05956       -0.80445       -0.00001
O         -3.30550        0.41844       -0.00001
C         -1.96806        0.30715        0.00001
C         -1.22233        1.50673        0.00000
C          0.14390        1.38300        0.00000
C          0.65768        0.07152        0.00001
Br         2.55102       -0.17480       -0.00000
N         -0.07784       -1.01678        0.00001
N         -1.41648       -0.90092        0.00001
H         -3.83214       -1.39981        0.88745
H         -3.83212       -1.39982       -0.88746
H         -5.10388       -0.49371       -0.00003
H         -1.72960        2.46448       -0.00000
H          0.80652        2.23956       -0.00000
