21
arbr3151_conf-1
C          5.00054        0.34765       -0.00019
C          3.78905       -0.56218        0.00014
O          2.61805        0.28235        0.00027
C          1.43081       -0.36966        0.00002
O          1.32564       -1.58093       -0.00024
C          0.31555        0.57886        0.00003
C          0.33877        1.99560        0.00004
N         -0.88269        2.51632       -0.00001
N         -1.72250        1.44289       -0.00001
C         -3.16005        1.64011       -0.00009
C         -1.04261        0.27472       -0.00000
Br        -1.92732       -1.36552        0.00003
H          5.00716        0.98764        0.88650
H          5.00685        0.98739       -0.88707
H          5.91600       -0.25149       -0.00027
H          3.75836       -1.20941       -0.88175
H          3.75870       -1.20919        0.88220
H          1.20765        2.63711        0.00007
H         -3.60720        1.18933       -0.88938
H         -3.60716        1.19042        0.88979
H         -3.32949        2.71502       -0.00074
