13
arbr6003_conf-1
N          3.95017       -1.68020        0.00001
C          3.03273       -0.96589       -0.00001
C          1.90492       -0.08137       -0.00000
C          2.10348        1.30793       -0.00000
C          1.00079        2.15680        0.00000
C         -0.29457        1.63875        0.00000
C         -0.47482        0.25608       -0.00000
Br        -2.24251       -0.45600        0.00000
C          0.60726       -0.61616       -0.00000
H          3.11191        1.70478       -0.00000
H          1.14642        3.23179        0.00000
H         -1.15576        2.29619        0.00000
H          0.45556       -1.68810       -0.00000
