14
arbr5498_conf-1
F          3.28620       -0.16597       -1.08641
C          2.55490       -0.47276       -0.00000
F          3.28613       -0.16607        1.08648
F          2.36200       -1.81144       -0.00006
C          1.23486        0.27275       -0.00001
C          0.02854       -0.42389       -0.00001
C         -1.13917        0.33503       -0.00000
Br        -2.83012       -0.53093        0.00000
C         -1.06577        1.72308        0.00000
C          0.20477        2.30390       -0.00000
N          1.34120        1.60425       -0.00001
H          0.00361       -1.50470       -0.00001
H         -1.96017        2.33363        0.00001
H          0.30470        3.38651        0.00000
