20
arbr3068_conf-4
C         -4.36900       -1.43180        0.87576
C         -3.72269       -1.27714       -0.49054
O         -2.35671       -0.81192       -0.37235
C         -2.19664        0.52270       -0.21821
O         -3.10396        1.32107       -0.19359
C         -0.73872        0.87930       -0.08537
C          0.24758       -0.11333       -0.10604
C          1.57049        0.29393        0.02474
Br         2.96775       -0.99847        0.00662
C          1.87193        1.64317        0.16870
C          0.80292        2.54331        0.17526
N         -0.47550        2.18537        0.05295
H         -4.45603       -0.46096        1.36813
H         -5.37301       -1.85366        0.76532
H         -3.78121       -2.10202        1.50931
H         -4.27819       -0.57237       -1.11319
H         -3.63742       -2.23439       -1.00877
H         -0.01785       -1.15480       -0.21940
H          2.89441        1.98508        0.27222
H          0.99673        3.60787        0.28589
