24
arbr4283_conf-1
C         -1.01573       -3.59165       -0.15184
O         -1.67483       -2.33526       -0.18600
C         -0.90532       -1.21418       -0.15324
C          0.49306       -1.22139       -0.05897
C          1.15471       -0.00001       -0.01609
Br         3.06485       -0.00003        0.11368
C          0.49309        1.22139       -0.05896
C         -0.90529        1.21422       -0.15323
O         -1.67478        2.33531       -0.18598
C         -1.01564        3.59169       -0.15183
C         -1.60785        0.00002       -0.21767
O         -2.96830        0.00005       -0.37328
C         -3.68910       -0.00003        0.85961
H         -0.34309       -3.71605       -1.00928
H         -1.80369       -4.34364       -0.19942
H         -0.44371       -3.72288        0.77528
H          1.05578       -2.14230       -0.01544
H          1.05583        2.14229       -0.01542
H         -1.80359        4.34369       -0.19942
H         -0.44363        3.72291        0.77528
H         -0.34301        3.71606       -1.00928
H         -4.74889       -0.00000        0.59798
H         -3.46002       -0.89619        1.44812
H         -3.45999        0.89604        1.44825
