18
arbr3314_conf-2
C          3.15645       -1.45019        0.79142
C          2.42620       -1.39914       -0.54039
O          1.02899       -1.08075       -0.36676
C          0.69127        0.20819       -0.19925
N          1.62184        1.15610       -0.23048
C          1.24698        2.43481       -0.07296
C         -0.06933        2.82622        0.12586
C         -1.05158        1.82986        0.16223
C         -0.67356        0.50883       -0.00090
Br        -1.96833       -0.88201        0.03906
H          2.66242       -2.14713        1.47416
H          4.18639       -1.78839        0.63740
H          3.18374       -0.46027        1.25141
H          2.41133       -2.37827       -1.02409
H          2.88130       -0.66878       -1.21333
H          2.04803        3.16913       -0.10747
H         -0.32861        3.87113        0.25147
H         -2.09658        2.07468        0.31472
