18
arbr3314_conf-3
C         -2.52464       -2.14737        0.68320
C         -1.10553       -2.13647        0.13969
O         -0.92211       -1.13174       -0.88337
C         -0.82213        0.14824       -0.44242
N         -1.91802        0.90198       -0.47701
C         -1.82920        2.18477       -0.10310
C         -0.64666        2.77758        0.33077
C          0.50575        1.99332        0.37524
C          0.41538        0.66407       -0.01670
Br         1.96117       -0.44655        0.01129
H         -3.24236       -2.30654       -0.12545
H         -2.63483       -2.95305        1.41697
H         -2.76941       -1.20002        1.16997
H         -0.86349       -3.07798       -0.35859
H         -0.36879       -1.97926        0.93662
H         -2.75082        2.75968       -0.15391
H         -0.62244        3.82116        0.62458
H          1.45622        2.40056        0.70065
