18
arbr4696_conf-1
C          4.22754       -0.94967        0.00005
O          3.34665        0.18012        0.00001
C          2.03244       -0.07567       -0.00005
N          1.61448       -1.34048       -0.00003
C          0.28087       -1.50830       -0.00003
C         -0.60597       -0.44975       -0.00002
Br        -2.48024       -0.71936        0.00001
C         -0.04163        0.84607       -0.00004
O         -0.86295        1.89678        0.00000
C         -0.25639        3.19894        0.00002
N          1.27033        1.02850       -0.00004
H          4.07050       -1.56740       -0.88768
H          5.23234       -0.52754        0.00010
H          4.07042       -1.56740        0.88777
H         -0.08758       -2.53034       -0.00001
H          0.36458        3.33519        0.88817
H         -1.09097        3.89885        0.00004
H          0.36456        3.33522       -0.88814
