17
arbr2381_conf-1
C         -0.93635        2.38284        0.45269
C          0.43333        1.95418       -0.02620
O          1.23434        2.79743       -0.39834
C          0.87125        0.50626       -0.00009
C          2.26634        0.31707        0.01032
C          2.84112       -0.94451        0.06339
C          2.02058       -2.07280        0.09255
C          0.63760       -1.92404        0.06129
C          0.07244       -0.64819        0.01849
Br        -1.84335       -0.61679       -0.07924
H         -1.26126        1.82486        1.33367
H         -0.88963        3.45144        0.66627
H         -1.68198        2.20562       -0.32745
H          2.87896        1.21045       -0.02469
H          3.92085       -1.04936        0.08065
H          2.45009       -3.06880        0.13350
H         -0.01218       -2.79085        0.06364
