20
arbr3487_conf-1
C          3.83867       -1.24466        0.08297
N          3.12481       -0.00000       -0.13596
C          3.83874        1.24462        0.08296
C          1.73786        0.00002       -0.07858
C          1.00458        1.20711       -0.05253
C         -0.38596        1.20557       -0.02707
C         -1.07994        0.00001       -0.01692
Br        -2.99233       -0.00000        0.02341
C         -0.38595       -1.20555       -0.02708
C          1.00459       -1.20708       -0.05254
H          4.91011       -1.06116       -0.00465
H          3.56976       -1.98847       -0.67480
H          3.64249       -1.68272        1.07402
H          3.64256        1.68273        1.07399
H          4.91017        1.06105       -0.00463
H          3.56991        1.98843       -0.67484
H          1.51594        2.16067       -0.05204
H         -0.92722        2.14459       -0.00987
H         -0.92720       -2.14458       -0.00989
H          1.51597       -2.16064       -0.05206
