12
arbr312_conf-1
N          3.95150       -1.63342        0.00001
C          3.04374       -0.90863       -0.00000
C          1.89003       -0.04287       -0.00001
C          0.61259       -0.61782       -0.00000
C         -0.47436        0.24990       -0.00000
Br        -2.23998       -0.44583        0.00000
C         -0.26282        1.62487        0.00000
C          1.05830        2.07947        0.00000
N          2.12586        1.27903       -0.00000
H          0.48415       -1.69260       -0.00000
H         -1.09277        2.32054        0.00000
H          1.26150        3.14737        0.00000
