14
arbr11119_conf-1
F         -3.48268        0.11746       -0.77069
C         -2.55171       -0.48382       -0.00154
F         -2.40699       -1.74970       -0.43944
F         -3.04640       -0.54192        1.25313
C         -1.24796        0.27288       -0.03102
C         -1.25274        1.66971       -0.01750
C         -0.02627        2.32459        0.00319
N          1.15265        1.68361        0.01064
C          1.12477        0.36582       -0.00399
Br         2.81302       -0.53712        0.00165
C         -0.03742       -0.40981       -0.02540
H         -2.18247        2.22549       -0.03087
H          0.02314        3.40993        0.01195
H          0.00766       -1.49013       -0.04283
