21
arbr3119_conf-1
C         -5.22550       -1.52688        0.00001
C         -4.57138       -0.16063       -0.00003
O         -3.14139       -0.36859       -0.00001
C         -2.38804        0.75181        0.00002
O         -2.85673        1.87368       -0.00000
C         -0.93026        0.45231        0.00001
C         -0.04033        1.53286        0.00001
C          1.33300        1.31504        0.00000
C          1.80715        0.00350        0.00000
Br         3.68944       -0.30644       -0.00000
C          0.93840       -1.08688        0.00001
C         -0.43436       -0.85711        0.00001
H         -4.93654       -2.09742       -0.88701
H         -4.93656       -2.09736        0.88706
H         -6.31402       -1.41752       -0.00001
H         -4.84082        0.42783       -0.88220
H         -4.84084        0.42788        0.88211
H         -0.44510        2.53860        0.00001
H          2.02915        2.14512       -0.00000
H          1.33310       -2.09580        0.00001
H         -1.12593       -1.69077        0.00002
