15
arbr4928_conf-1
C         -3.96775       -0.00001        0.01581
C         -2.45957        0.00002       -0.01082
C         -1.73963       -1.20064       -0.01047
C         -0.34581       -1.21188       -0.00442
C          0.33898        0.00001       -0.00055
Br         2.25134       -0.00001        0.00321
C         -0.34580        1.21189       -0.00442
C         -1.73963        1.20066       -0.01047
H         -4.34380       -0.00127        1.04610
H         -4.37547       -0.88491       -0.48086
H         -4.37546        0.88607       -0.47873
H         -2.27538       -2.14596       -0.01679
H          0.20181       -2.14702       -0.00660
H          0.20182        2.14703       -0.00660
H         -2.27537        2.14598       -0.01678
