20
arbr4632_conf-2
C         -3.53617       -0.63673        0.26646
O         -2.13341       -0.81684        0.14763
C         -1.35397        0.28776        0.02848
C         -1.83851        1.60084        0.02552
C         -0.95261        2.67046       -0.11080
C          0.41413        2.45335       -0.23739
C          0.91076        1.14634       -0.23446
O          2.25651        0.94588       -0.40486
C          2.97723        0.71964        0.81049
C          0.02942        0.06989       -0.10274
Br         0.69753       -1.70853       -0.12838
H         -3.95810       -1.63898        0.34272
H         -3.79363       -0.06431        1.16604
H         -3.95267       -0.13239       -0.61397
H         -2.89944        1.79133        0.12287
H         -1.34210        3.68335       -0.11671
H          1.11645        3.27125       -0.35068
H          4.02270        0.59185        0.52592
H          2.62443       -0.18495        1.31634
H          2.88236        1.57955        1.48509
