15
arbr3763_conf-1
C          2.94653       -1.70385        0.00015
O          1.67382       -1.03357       -0.00003
C          1.73560        0.30552       -0.00023
O          2.76626        0.95578       -0.00002
C          0.41029        0.93315       -0.00009
N          0.33407        2.29323        0.00001
N         -0.91738        2.76365        0.00007
C         -1.69127        1.67282        0.00009
C         -0.91212        0.49958        0.00001
Br        -1.55676       -1.25886       -0.00002
H          3.52010       -1.43288       -0.88897
H          2.71288       -2.76711        0.00028
H          3.51997       -1.43265        0.88930
H          1.12982        2.91557       -0.00001
H         -2.76769        1.75800        0.00016
