20
arbr3068_conf-3
C         -3.96236       -2.38923        0.00001
C         -3.87145       -0.87732       -0.00002
O         -2.46827       -0.52966       -0.00001
C         -2.19722        0.79492        0.00001
O         -3.04269        1.65830        0.00000
C         -0.71120        1.04388        0.00000
C          0.19444       -0.02312        0.00000
C          1.54989        0.28597        0.00000
Br         2.84213       -1.11166       -0.00000
C          1.96058        1.61389       -0.00000
C          0.96480        2.59445       -0.00000
N         -0.34229        2.33149        0.00000
H         -3.48010       -2.80900        0.88717
H         -5.01193       -2.69773        0.00001
H         -3.48009       -2.80903       -0.88712
H         -4.34193       -0.43302        0.88218
H         -4.34192       -0.43305       -0.88223
H         -0.15525       -1.04576        0.00000
H          3.01048        1.87994       -0.00000
H          1.24482        3.64545       -0.00000
