20
arbr4632_conf-1
C          3.59945       -0.56717        0.00001
O          2.34590        0.09683       -0.00001
C          1.21933       -0.66063       -0.00000
C          1.21444       -2.06228       -0.00000
C         -0.00000       -2.74216       -0.00000
C         -1.21444       -2.06228       -0.00000
C         -1.21933       -0.66063        0.00000
O         -2.34590        0.09683       -0.00000
C         -3.59945       -0.56717        0.00001
C         -0.00000        0.03242       -0.00000
Br         0.00000        1.93049       -0.00000
H          4.35238        0.22127        0.00001
H          3.72581       -1.19015        0.89401
H          3.72583       -1.19016       -0.89399
H          2.14394       -2.61575       -0.00001
H         -0.00000       -3.82755       -0.00001
H         -2.14394       -2.61575       -0.00000
H         -4.35238        0.22127        0.00001
H         -3.72582       -1.19015        0.89401
H         -3.72583       -1.19016       -0.89399
