12
arbr5657_conf-1
F         -3.79825        0.00000        0.00001
C         -2.45040       -0.00000       -0.00001
C         -1.77713       -1.21585       -0.00000
C         -0.38298       -1.21461        0.00000
C          0.30031       -0.00000       -0.00000
Br         2.21009        0.00000        0.00000
C         -0.38298        1.21460       -0.00000
C         -1.77713        1.21585       -0.00000
H         -2.34017       -2.14205       -0.00000
H          0.16664       -2.14821        0.00000
H          0.16664        2.14821       -0.00000
H         -2.34017        2.14205        0.00000
