17
arbr1511_conf-1
Br        -2.31262       -0.50268       -0.00000
C         -0.68974        0.50716       -0.00000
C         -0.76684        1.87983        0.00000
C          0.41508        2.65772        0.00000
C          1.64762        2.04890        0.00000
C          1.74221        0.63581       -0.00000
C          2.99480       -0.03771       -0.00001
N          3.14134       -1.34475        0.00000
C          2.00628       -2.09673        0.00001
C          0.73405       -1.57496       -0.00000
C          0.56065       -0.16949       -0.00000
H         -1.73622        2.36415        0.00000
H          0.33311        3.73958        0.00000
H          2.56027        2.63721        0.00000
H          3.90597        0.56092        0.00001
H          2.15714       -3.17289        0.00001
H         -0.13247       -2.22491       -0.00000
