20
arbr3150_conf-1
C          5.43867        0.35727        0.00086
C          4.31680       -0.65955        0.00029
O          3.06935        0.07619       -0.00026
C          1.95005       -0.67185       -0.00087
O          1.94394       -1.88652       -0.00031
C          0.71669        0.16555       -0.00052
C          0.74223        1.56527       -0.00041
N         -0.36372        2.31653       -0.00014
C         -1.54588        1.69426        0.00005
C         -1.66339        0.30155       -0.00004
Br        -3.39201       -0.49724        0.00024
C         -0.52086       -0.48432       -0.00032
H          5.38724        0.99435        0.88795
H          5.38806        0.99443       -0.88622
H          6.40402       -0.15726        0.00128
H          4.34059       -1.30543       -0.88228
H          4.33978       -1.30551        0.88283
H          1.69165        2.09053       -0.00057
H         -2.43614        2.31711        0.00028
H         -0.56076       -1.56687       -0.00039
