20
arbr3068_conf-1
C         -4.88263       -0.65653        0.93702
C         -4.38286       -0.18988       -0.41990
O         -3.09194        0.45663       -0.30561
C         -2.03097       -0.35702       -0.26759
O         -2.08319       -1.57101       -0.33710
C         -0.73090        0.38826       -0.13320
C          0.43877       -0.37831       -0.10619
C          1.64499        0.29873        0.01808
Br         3.28256       -0.66903        0.06131
C          1.65431        1.68685        0.11133
C          0.42263        2.34488        0.07439
N         -0.75306        1.72409       -0.04511
H         -4.91610        0.17713        1.64379
H         -5.89247       -1.06741        0.83858
H         -4.23132       -1.43682        1.33658
H         -5.02909        0.58022       -0.84519
H         -4.29824       -1.02482       -1.11929
H          0.37894       -1.45591       -0.18105
H          2.58122        2.23851        0.20927
H          0.39002        3.42969        0.14529
