21
arbr3151_conf-4
C          3.96698       -0.50464        0.92309
C          3.29051       -0.53405       -0.43729
O          1.86840       -0.30183       -0.31704
C          1.48198        0.99027       -0.22944
O          2.24613        1.93683       -0.26775
C          0.03069        1.12908       -0.08576
C         -0.65806        2.36254        0.01721
N         -1.96874        2.19807        0.14114
N         -2.15616        0.84856        0.12181
C         -3.49358        0.29765        0.23912
C         -0.98713        0.18073       -0.01212
Br        -0.96074       -1.68581       -0.06377
H          5.02636       -0.76025        0.81871
H          3.50252       -1.22627        1.60107
H          3.89466        0.49302        1.36139
H          3.71495        0.21836       -1.10576
H          3.36330       -1.51906       -0.90304
H         -0.22085        3.35024        0.00198
H         -3.74244       -0.29393       -0.64525
H         -3.56954       -0.33730        1.12523
H         -4.17350        1.14276        0.32629
