20
arbr3150_conf-4
C          4.42368       -1.39558        0.87861
C          3.77527       -1.25980       -0.48839
O          2.39594       -0.82997       -0.37144
C          2.19608        0.49527       -0.22212
O          3.08465        1.32337       -0.20019
C          0.74992        0.82741       -0.09061
C          0.38027        2.16940        0.06043
N         -0.88714        2.57242        0.18705
C         -1.84502        1.64019        0.16834
C         -1.56676        0.27919        0.02281
Br        -2.99656       -0.97922        0.00822
C         -0.25217       -0.14688       -0.10975
H          3.85241       -2.07905        1.51294
H          4.48709       -0.42221        1.36965
H          5.43769       -1.79286        0.76913
H          4.31188       -0.54210       -1.11259
H          3.71366       -2.21952       -1.00496
H          1.15157        2.93328        0.07711
H         -2.87176        1.98003        0.27245
H         -0.00536       -1.19437       -0.22370
