21
arbr3132_conf-1
C          4.00540       -2.37926       -0.00042
C          3.89574       -0.86863       -0.00011
O          2.48723       -0.54019        0.00024
C          2.19357        0.77612        0.00056
O          3.03601        1.65214        0.00006
C          0.72399        1.02862        0.00025
C          0.28669        2.35771       -0.00006
C         -1.07632        2.63895       -0.00033
C         -2.01091        1.60224       -0.00031
C         -1.55893        0.28365       -0.00001
Br        -2.83513       -1.13896        0.00003
C         -0.20264       -0.02067        0.00027
H          3.52803       -2.80477        0.88656
H          5.05862       -2.67530       -0.00069
H          3.52767       -2.80443       -0.88737
H          4.35987       -0.41837       -0.88253
H          4.36023       -0.41871        0.88229
H          1.02936        3.14692       -0.00007
H         -1.42064        3.66802       -0.00057
H         -3.07437        1.81051       -0.00052
H          0.13525       -1.04813        0.00050
