20
arbr3150_conf-3
C          4.05112       -2.35819       -0.00005
C          3.92058       -0.84946        0.00001
O          2.50657       -0.53970        0.00003
C          2.19515        0.77130        0.00003
O          3.01847        1.66396        0.00001
C          0.72235        0.99487        0.00001
C          0.24236        2.31006       -0.00001
N         -1.05783        2.61738       -0.00003
C         -1.93858        1.61178       -0.00002
C         -1.54829        0.27066       -0.00000
Br        -2.87387       -1.09720        0.00000
C         -0.19906       -0.05615        0.00002
H          3.58039       -2.79049       -0.88727
H          3.58039       -2.79056        0.88715
H          5.10861       -2.63815       -0.00006
H          4.37760       -0.39254        0.88262
H          4.37760       -0.39247       -0.88256
H          0.95053        3.13301       -0.00001
H         -2.99293        1.87419       -0.00004
H          0.13392       -1.08590        0.00003
