17
arbr8295_conf1
C          4.11375       -0.17577       -0.00003
C          2.73009       -0.79604        0.00004
O          2.58560       -2.00778       -0.00002
C          1.53632        0.11359        0.00002
C          1.64616        1.50991        0.00001
C          0.49900        2.30203       -0.00000
C         -0.76470        1.71350       -0.00001
C         -0.86248        0.32131        0.00000
Br        -2.59402       -0.48671       -0.00000
C          0.26740       -0.48283        0.00002
H          4.25766        0.45669       -0.88250
H          4.25775        0.45668        0.88244
H          4.85512       -0.97437       -0.00007
H          2.62140        1.98293        0.00002
H          0.58440        3.38390       -0.00001
H         -1.66221        2.32068       -0.00002
H          0.19837       -1.56356        0.00003
