20
arbr3068_conf-2
C         -5.44644        0.31150        0.00053
C         -4.30178       -0.68001        0.00015
O         -3.07334        0.08513       -0.00018
C         -1.94833       -0.63682       -0.00054
O         -1.91099       -1.85290       -0.00016
C         -0.70722        0.21324       -0.00031
C          0.52026       -0.45743       -0.00019
C          1.67268        0.31742       -0.00002
Br         3.38319       -0.51589        0.00014
C          1.57494        1.70533        0.00004
C          0.29410        2.26256       -0.00008
N         -0.83253        1.54627       -0.00025
H         -6.40079       -0.22364        0.00079
H         -5.40685        0.95018        0.88689
H         -5.40737        0.95025       -0.88580
H         -4.31181       -1.32689       -0.88229
H         -4.31129       -1.32696        0.88255
H          0.54340       -1.53908       -0.00026
H          2.45832        2.33204        0.00018
H          0.17772        3.34388       -0.00004
