17
arbr8295_conf2
C         -2.79562       -2.06920       -0.00001
C         -2.85052       -0.55412        0.00002
O         -3.91883        0.03606       -0.00001
C         -1.56065        0.21311        0.00001
C         -1.62150        1.61349        0.00000
C         -0.45210        2.36553       -0.00000
C          0.79417        1.73472       -0.00000
C          0.84497        0.34292        0.00000
Br         2.54425       -0.53170       -0.00000
C         -0.31424       -0.42614        0.00001
H         -2.26362       -2.44069       -0.88234
H         -2.26363       -2.44072        0.88233
H         -3.81419       -2.45629       -0.00002
H         -2.59893        2.08175        0.00001
H         -0.50019        3.44980       -0.00001
H          1.71170        2.31121       -0.00001
H         -0.23643       -1.50582        0.00001
