15
arbr5016_conf-1
C          3.12314       -1.55736        0.00931
C          2.07469       -0.47256       -0.01101
C          2.43949        0.87956       -0.00807
C          1.47034        1.88090        0.00236
C          0.11362        1.55607        0.00746
C         -0.24236        0.21109        0.00056
Br        -2.09638       -0.26349        0.00037
C          0.71435       -0.80024       -0.00984
H          3.99355       -1.27930       -0.59232
H          2.72953       -2.50128       -0.37713
H          3.47757       -1.74148        1.03051
H          3.49225        1.14759       -0.01531
H          1.76880        2.92479        0.00252
H         -0.64919        2.32547        0.01217
H          0.40111       -1.83851       -0.01786
