17
arbr4008_conf-2
C          3.86507       -0.65979       -0.14508
O          2.73568        0.22683       -0.21061
C          1.55057       -0.33932        0.10964
O          1.43234       -1.50497        0.41412
C          0.44286        0.66728        0.04915
C          0.74722        2.03652        0.06196
C         -0.27951        2.97226        0.04077
N         -1.57621        2.63843       -0.00103
C         -1.87600        1.34055       -0.02224
C         -0.91495        0.32193        0.00548
Br        -1.56470       -1.46102       -0.05448
H          3.73106       -1.49800       -0.83227
H          4.72576       -0.05786       -0.43321
H          3.98657       -1.04993        0.86800
H          1.78228        2.35117        0.09193
H         -0.05491        4.03566        0.05661
H         -2.92839        1.07420       -0.06303
