19
aCOBr_5
C         1.60950     -0.31850      0.01640
C         0.68450      0.91030      0.11420
C        -0.64240      0.83330      0.86600
O         0.99290      1.95890     -0.39560
Br       -1.97720     -0.18420     -0.12010
C         1.46970     -0.87540     -1.41470
C         3.05030      0.16990      0.23120
C         1.27280     -1.40960      1.03920
H        -0.54500      0.35330      1.84670
H        -1.03490      1.85020      0.96950
H         1.69670     -0.09520     -2.15570
H         2.17690     -1.70700     -1.55850
H         0.45380     -1.25070     -1.60540
H         3.19060      0.56720      1.24860
H         3.30070      0.96630     -0.48190
H         3.75360     -0.66510      0.09220
H         0.25410     -1.80330      0.90820
H         1.96940     -2.25290      0.91820
H         1.37850     -1.04590      2.07370
