19
aCOBr_4
C        -1.99530     -0.09340      0.01590
C        -0.54180      0.40120     -0.12020
C         0.52970     -0.68340     -0.20330
O        -0.26640      1.57040     -0.14320
Br        2.31990     -0.02120      0.03380
C        -2.26310     -1.31930     -0.87070
C        -2.20760     -0.46110      1.49790
C        -2.93870      1.04890     -0.37050
H         0.35700     -1.46740      0.54530
H         0.48090     -1.15540     -1.19470
H        -1.66660     -2.19470     -0.57330
H        -3.32240     -1.60720     -0.79140
H        -2.05670     -1.10370     -1.93090
H        -1.55600     -1.28790      1.82020
H        -2.01460      0.40350      2.15020
H        -3.24950     -0.78040      1.65420
H        -2.74700      1.94140      0.23930
H        -2.80560      1.33350     -1.42490
H        -3.98470      0.73850     -0.22610
