19
aCOBr_3
C         1.73040     -0.24890     -0.04310
C         0.61330      0.78700      0.14520
C        -0.59810      0.40920      0.99930
O         0.67920      1.89890     -0.31380
Br       -2.07000     -0.15430     -0.13980
C         2.46890     -0.36560      1.30580
C         2.69630      0.25610     -1.11720
C         1.16400     -1.61910     -0.44580
H        -0.40840     -0.41100      1.70050
H        -0.94180      1.30140      1.53460
H         1.81680     -0.74300      2.10870
H         3.30820     -1.07090      1.20590
H         2.87860      0.60600      1.62110
H         2.18720      0.36440     -2.08600
H         3.11000      1.23780     -0.85020
H         3.52740     -0.45480     -1.24000
H         0.61280     -1.56350     -1.39600
H         1.99290     -2.33220     -0.57400
H         0.48550     -2.03680      0.31300
