19
aCOCl_6
C        -3.15280     -0.09110     -0.09460
O        -1.75840     -0.21860     -0.37820
C        -1.02570      0.88900     -0.28810
O        -1.47110      1.98090     -0.06040
C         0.43940      0.58660     -0.49650
C        -3.77800     -1.46180     -0.20250
C         1.06660      0.02800      0.76560
O         0.43740     -0.21310      1.76200
C         2.57880     -0.17220      0.79600
Cl        3.34620     -0.45090     -0.79290
H        -3.59920      0.62290     -0.80460
H        -3.27060      0.33620      0.91320
H         0.57890     -0.14680     -1.30530
H         0.96790      1.50570     -0.78950
H        -3.65160     -1.87290     -1.21440
H        -3.31860     -2.15680      0.51470
H        -4.85400     -1.40010      0.01410
H         3.02750      0.73390      1.23030
H         2.80190     -1.02060      1.45420
