19
aCOCl_9
C        -2.86140     -0.05260      0.43680
O        -1.75720      0.30240     -0.40140
C        -0.61300      0.59340      0.20760
O        -0.46350      0.58140      1.40260
C         0.46200      0.97640     -0.78620
C        -4.04560     -0.34900     -0.45230
C         1.86020      0.89550     -0.20310
O         2.63380      1.81420     -0.26880
C         2.28190     -0.38440      0.50740
Cl        1.58230     -1.87030     -0.20700
H        -3.06390      0.77780      1.13090
H        -2.57570     -0.92330      1.04700
H         0.38470      0.32490     -1.66920
H         0.29460      2.01240     -1.11510
H        -3.82410     -1.18130     -1.13540
H        -4.91300     -0.62730      0.16300
H        -4.31560      0.53110     -1.05330
H         3.37520     -0.45700      0.48350
H         1.92990     -0.32220      1.54670
