19
aCOCl_1
C         2.43630     -0.22250      0.03080
O         1.17230     -0.59530     -0.52450
C         0.36350     -1.33360      0.24350
O         0.68310     -1.80560      1.29840
C        -0.99510     -1.50030     -0.40140
C         2.98960      0.91390     -0.79590
C        -1.89790     -0.27020     -0.45860
O        -3.09240     -0.38880     -0.39720
C        -1.26990      1.10320     -0.66910
Cl       -0.57370      1.69510      0.87670
H         2.28740      0.07010      1.08070
H         3.09920     -1.10210      0.02300
H        -0.84080     -1.80230     -1.45160
H        -1.54580     -2.29530      0.11380
H         3.10780      0.61860     -1.84850
H         2.31890      1.78400     -0.74520
H         3.97360      1.21460     -0.40910
H        -0.45400      1.06760     -1.40120
H        -2.05640      1.80230     -0.97400
