19
aCOCl_5
C         3.29980      0.57340     -0.29360
O         2.27440     -0.30940      0.17770
C         1.05420      0.19830      0.29950
O         0.77250      1.33990      0.03590
C         0.07730     -0.83130      0.83430
C         4.59030     -0.20750     -0.36430
C        -1.28160     -0.77320      0.13520
O        -1.62650     -1.63500     -0.62370
C        -2.12570      0.43820      0.48800
Cl       -3.69340      0.46630     -0.33570
H         3.00130      0.96840     -1.27670
H         3.37230      1.43130      0.39270
H         0.48780     -1.84020      0.71300
H        -0.04390     -0.62460      1.91080
H         4.87110     -0.59350      0.62600
H         4.49670     -1.05750     -1.05500
H         5.39930      0.44370     -0.72420
H        -2.29390      0.45290      1.57550
H        -1.55160      1.34030      0.22920
