19
aCOCl_7
C         3.38430      0.05230     -0.66360
O         2.28650      0.75480     -0.06510
C         1.13610      0.10290      0.06150
O         0.95500     -1.02970     -0.30910
C         0.09420      0.96050      0.75320
C         4.10140     -0.82350      0.34330
C        -1.30700      0.78360      0.16760
O        -1.82300      1.65170     -0.47880
C        -1.96390     -0.54910      0.47930
Cl       -3.59210     -0.70560     -0.19990
H         3.00770     -0.54190     -1.50840
H         4.04050      0.84410     -1.04710
H         0.09860      0.66690      1.81640
H         0.37050      2.01880      0.68170
H         4.44130     -0.23170      1.20550
H         3.44340     -1.62910      0.69760
H         4.98220     -1.28440     -0.12710
H        -1.31740     -1.34690      0.08500
H        -2.01930     -0.67520      1.57120
