19
aCOCl_8
C         2.86140     -0.05280      0.43680
O         1.75710      0.30220     -0.40140
C         0.61300      0.59330      0.20760
O         0.46350      0.58120      1.40260
C        -0.46200      0.97640     -0.78620
C         4.04570     -0.34870     -0.45230
C        -1.86010      0.89560     -0.20300
O        -2.63380      1.81430     -0.26880
C        -2.28180     -0.38430      0.50740
Cl       -1.58240     -1.87020     -0.20710
H         2.57580     -0.92370      1.04680
H         3.06370      0.77750      1.13110
H        -0.29450      2.01240     -1.11500
H        -0.38470      0.32500     -1.66920
H         3.82440     -1.18090     -1.13560
H         4.31560      0.53150     -1.05300
H         4.91310     -0.62710      0.16300
H        -1.92970     -0.32220      1.54670
H        -3.37520     -0.45690      0.48380
