19
aCOCl_2
C        -2.53000      1.01660      0.16560
O        -1.36510      0.26640     -0.19450
C        -1.46050     -1.06700     -0.16150
O        -2.46380     -1.66120      0.11360
C        -0.13950     -1.71390     -0.53740
C        -2.16690      2.48200      0.13280
C         1.04810     -1.00040      0.10670
O         1.41040     -1.26340      1.21850
C         1.69630      0.05600     -0.77210
Cl        2.95820      0.98440      0.05270
H        -2.86090      0.69530      1.16490
H        -3.33980      0.77440     -0.54000
H        -0.16720     -2.75430     -0.19280
H        -0.06530     -1.70220     -1.63690
H        -1.34950      2.69790      0.83550
H        -3.03820      3.08830      0.41830
H        -1.85050      2.78780     -0.87490
H         2.13510     -0.43740     -1.65330
H         0.91120      0.74090     -1.12230
