19
aCOCl_4
C         3.15280     -0.09120     -0.09460
O         1.75840     -0.21870     -0.37810
C         1.02570      0.88890     -0.28830
O         1.47110      1.98090     -0.06100
C        -0.43940      0.58650     -0.49670
C         3.77790     -1.46190     -0.20210
C        -1.06660      0.02830      0.76560
O        -0.43740     -0.21250      1.76210
C        -2.57880     -0.17190      0.79600
Cl       -3.34610     -0.45130     -0.79280
H         3.27060      0.33640      0.91310
H         3.59920      0.62260     -0.80470
H        -0.96790      1.50550     -0.79000
H        -0.57900     -0.14710     -1.30530
H         3.31850     -2.15670      0.51530
H         3.65160     -1.87330     -1.21390
H         4.85400     -1.40020      0.01450
H        -2.80200     -1.02000      1.45460
H        -3.02750      0.73440      1.22990
