19
aCOCl_3
C        -2.43630     -0.22260      0.03080
O        -1.17230     -0.59530     -0.52460
C        -0.36350     -1.33360      0.24340
O        -0.68300     -1.80570      1.29830
C         0.99510     -1.50030     -0.40150
C        -2.98960      0.91390     -0.79580
C         1.89790     -0.27020     -0.45850
O         3.09240     -0.38880     -0.39700
C         1.26980      1.10320     -0.66910
Cl        0.57370      1.69510      0.87660
H        -2.28740      0.06990      1.08070
H        -3.09930     -1.10210      0.02290
H         1.54580     -2.29530      0.11370
H         0.84080     -1.80220     -1.45170
H        -2.31880      1.78400     -0.74490
H        -3.10770      0.61880     -1.84850
H        -3.97360      1.21460     -0.40890
H         2.05640      1.80230     -0.97400
H         0.45400      1.06760     -1.40130
