15
BnBr
C        -2.57140     -1.20640     -0.21560
C        -1.27700     -1.20540      0.29870
C        -0.61760      0.00000      0.56340
C        -1.27700      1.20540      0.29870
C        -2.57140      1.20640     -0.21560
C        -3.22140     -0.00000     -0.47410
C         0.77710      0.00000      1.10990
Br        2.12890     -0.00000     -0.31130
H        -3.07580     -2.15420     -0.41560
H        -0.76770     -2.15260      0.49520
H        -0.76770      2.15260      0.49520
H        -3.07580      2.15420     -0.41560
H        -4.23650     -0.00000     -0.87700
H         0.98280      0.89350      1.71070
H         0.98280     -0.89350      1.71070
