15
BnCl
C        -1.97950     -1.20630     -0.15580
C        -0.64700     -1.20490      0.25020
C         0.03150      0.00000      0.46120
C        -0.64700      1.20490      0.25020
C        -1.97950      1.20630     -0.15580
C        -2.64880     -0.00000     -0.35940
C         1.47350      0.00000      0.87500
Cl        2.58040     -0.00000     -0.55410
H        -2.49840     -2.15420     -0.31400
H        -0.12300     -2.15220      0.40400
H        -0.12300      2.15220      0.40400
H        -2.49840      2.15420     -0.31400
H        -3.69380     -0.00000     -0.67700
H         1.72480      0.89220      1.46200
H         1.72480     -0.89220      1.46200
