14
tBuBr
C         1.28260     -1.45250      0.08560
C         0.82900     -0.00000     -0.00000
Br       -1.16430      0.00000      0.00010
C         1.28290      0.80030      1.21500
C         1.28260      0.65200     -1.30070
H         0.92180     -2.03560     -0.77340
H         2.38480     -1.48630      0.08740
H         0.92210     -1.93060      1.00720
H         0.92250      1.83760      1.16830
H         0.92240      0.34810      2.14960
H         2.38510      0.81870      1.24300
H         0.92210      1.68760     -1.37610
H         2.38480      0.66700     -1.33110
H         0.92170      0.09310     -2.17560
