14
tBuCl
C         0.81080     -0.90510     -1.13980
C         0.35850      0.00000      0.00000
Cl       -1.47830      0.00010     -0.00020
C         0.81030     -0.53470      1.35380
C         0.81080      1.43970     -0.21370
H         0.44320     -0.53410     -2.10690
H         1.91180     -0.93280     -1.17370
H         0.44210     -1.93080     -0.99820
H         0.44200      0.10110      2.17120
H         0.44190     -1.55740      1.51610
H         1.91140     -0.55100      1.39500
H         0.44250      2.09180      0.59080
H         1.91180      1.48310     -0.22000
H         0.44270      1.82990     -1.17320
