13
alkylCl20_conf-1
Cl        -2.05228       -0.02701       -0.07131
C         -0.33561       -0.01804        0.43290
C          0.44537        1.17309       -0.11673
O          1.79080        0.78967        0.00127
C          1.90730       -0.62500       -0.02701
C          0.48118       -1.18426       -0.10936
H         -0.33395       -0.00684        1.53167
H          0.15310        1.35106       -1.17036
H          0.28106        2.10006        0.45106
H          2.42276       -0.95344        0.89136
H          2.52246       -0.93853       -0.88653
H          0.34198       -2.11356        0.45872
H          0.18541       -1.37177       -1.15266
