13
alkylCl20_conf-2
Cl        -1.76824       -0.04441       -0.34424
C         -0.35411        0.11688        0.77469
C          0.58395        1.23721        0.32878
O          1.52910        0.65392       -0.53740
C          1.38537       -0.75247       -0.56554
C          0.55491       -1.10062        0.66729
H         -0.77741        0.27637        1.77321
H          0.04575        2.05194       -0.17844
H          1.09213        1.66041        1.21649
H          2.38261       -1.21749       -0.55583
H          0.86554       -1.06689       -1.48871
H          1.19330       -1.13989        1.56494
H          0.00471       -2.04684        0.58829
