26
alkylCl21_conf-3
Cl        -3.98916       -0.60554        0.56722
C         -2.80160        0.00092       -0.61296
C         -1.98034        1.23926       -0.18655
N         -0.78234        0.47283       -0.48046
C          0.48758        0.73644       -0.06995
O          1.25315       -0.34752       -0.24998
C          2.66688       -0.34885        0.07910
C          2.85676       -0.09706        1.57413
C          3.40266        0.68437       -0.77260
C          3.10558       -1.76242       -0.28934
O          0.83390        1.80591        0.37798
C         -1.47463       -0.78476       -0.71325
H         -3.32498        0.11860       -1.56838
H         -2.11690        2.14141       -0.80176
H         -2.08892        1.50431        0.87739
H          2.53086        0.91446        1.84564
H          2.27857       -0.82773        2.15956
H          3.91904       -0.21127        1.83598
H          3.20907        0.50436       -1.84070
H          4.48599        0.60058       -0.60096
H          3.08136        1.70212       -0.51926
H          4.17757       -1.89342       -0.08302
H          2.54335       -2.50519        0.29501
H          2.92815       -1.95494       -1.35733
H         -1.26769       -1.25622       -1.68595
H         -1.33710       -1.52720        0.08893
