32
alkylCl18_conf-3
O          0.84693       -1.50391       -1.15426
C          0.56140       -0.93997       -0.11901
O          1.38074       -0.14785        0.58278
C          2.66272        0.27992        0.05787
C          2.46562        1.01999       -1.26446
C          3.59823       -0.91908       -0.08670
C          3.17172        1.23375        1.13444
N         -0.65532       -1.05533        0.49691
C         -1.07938       -0.20756        1.60199
C         -2.53640        0.23455        1.40649
C         -2.86364        0.45743       -0.06389
Cl        -1.81121        1.79096       -0.72185
C         -2.68206       -0.83812       -0.87225
C         -1.70116       -1.79520       -0.17970
H          3.41608        1.47639       -1.57814
H          2.12263        0.33705       -2.05104
H          1.71914        1.81879       -1.14145
H          3.22078       -1.61740       -0.84326
H          4.59931       -0.57353       -0.38498
H          3.68883       -1.44850        0.87367
H          4.16391        1.62094        0.86125
H          3.25208        0.71512        2.10081
H          2.48462        2.08439        1.25228
H         -0.42592        0.67105        1.63054
H         -0.97060       -0.73057        2.56866
H         -3.23367       -0.53576        1.77775
H         -2.72955        1.14372        1.99314
H         -3.88254        0.84652       -0.17721
H         -2.32997       -0.59066       -1.88261
H         -3.66186       -1.32997       -0.98251
H         -2.22706       -2.41725        0.56388
H         -1.23195       -2.46933       -0.90437
