29
alkylCl19_conf-3
Cl         4.45748       -0.35626        0.04273
C          2.80014        0.13163       -0.42639
C          1.73229       -0.84415        0.06528
N          0.54534       -0.00843        0.07278
C         -0.70020       -0.55565        0.04870
O         -1.62809        0.41243        0.00849
C         -3.04681        0.11155       -0.01593
C         -3.69104        1.49394       -0.04992
C         -3.44736       -0.63813        1.25377
C         -3.39481       -0.67550       -1.27852
O         -0.91054       -1.74920        0.06065
C          0.83979        1.41977        0.01732
C          2.36203        1.46530        0.17134
H          2.79562        0.17952       -1.52447
H          1.98551       -1.21325        1.07476
H          1.59969       -1.71611       -0.58921
H         -4.78646        1.40233       -0.07317
H         -3.36715        2.04839       -0.94267
H         -3.40723        2.07371        0.84038
H         -2.97829       -1.62888        1.28841
H         -4.54028       -0.76008        1.28143
H         -3.14299       -0.06772        2.14420
H         -4.48566       -0.79938       -1.34792
H         -2.92521       -1.66649       -1.26457
H         -3.05384       -0.13111       -2.17202
H          0.51126        1.84900       -0.94459
H          0.31793        1.96916        0.81397
H          2.64405        1.48737        1.23526
H          2.82329        2.33049       -0.32259
