18
alkylCl17_conf-2
Cl         2.37189        0.00000       -0.06765
C          0.61613       -0.00000        0.37179
C         -0.05729       -1.26295       -0.15060
C         -1.54846       -1.26177        0.19856
C         -2.24388        0.00000       -0.31429
C         -1.54846        1.26177        0.19856
C         -0.05729        1.26295       -0.15060
H          0.59847       -0.00000        1.47265
H          0.07194       -1.30048       -1.24574
H          0.44335       -2.15117        0.26261
H         -2.02596       -2.16316       -0.21553
H         -1.66641       -1.32309        1.29511
H         -2.22662        0.00000       -1.41859
H         -3.30424        0.00000       -0.01744
H         -1.66641        1.32309        1.29511
H         -2.02596        2.16316       -0.21553
H          0.44335        2.15117        0.26261
H          0.07194        1.30048       -1.24574
