26
alkylCl21_conf-1
Cl         3.98920        0.60560        0.56720
C          2.80154       -0.00091       -0.61288
C          1.98036       -1.23927       -0.18655
N          0.78231       -0.47298       -0.48067
C         -0.48760       -0.73650       -0.06994
O         -1.25311        0.34754       -0.24980
C         -2.66682        0.34889        0.07907
C         -3.40256       -0.68430       -0.77269
C         -3.10553        1.76245       -0.28937
C         -2.85691        0.09705        1.57408
O         -0.83394       -1.80591        0.37809
C          1.47459        0.78469       -0.71320
H          3.32490       -0.11857       -1.56832
H          2.11708       -2.14146       -0.80167
H          2.08877       -1.50435        0.87742
H         -3.20886       -0.50435       -1.84078
H         -3.08132       -1.70207       -0.51933
H         -4.48590       -0.60048       -0.60116
H         -2.54338        2.50520        0.29508
H         -4.17755        1.89341       -0.08317
H         -2.92796        1.95501       -1.35733
H         -3.91923        0.21112        1.83584
H         -2.53098       -0.91444        1.84562
H         -2.27885        0.82773        2.15962
H          1.26772        1.25627       -1.68586
H          1.33687        1.52706        0.08902
