29
alkylCl19_conf-1
Cl         3.42279       -0.23752        1.24257
C          3.00963       -0.08835       -0.51426
C          1.79261       -0.94019       -0.85642
N          0.67776       -0.05632       -0.56455
C         -0.57244       -0.55572       -0.37457
O         -1.41746        0.42775       -0.03072
C         -2.82033        0.17266        0.23218
C         -3.36301        1.55637        0.57605
C         -2.96787       -0.77405        1.42250
C         -3.49940       -0.37584       -1.02204
O         -0.85385       -1.72754       -0.50826
C          1.07831        1.32889       -0.35380
C          2.53439        1.32899       -0.82251
H          3.91168       -0.38470       -1.06146
H          1.73283       -1.86903       -0.27414
H          1.81964       -1.21750       -1.92631
H         -4.43748        1.49812        0.80205
H         -3.21967        2.24737       -0.26739
H         -2.84217        1.96708        1.45313
H         -2.42974       -0.37413        2.29500
H         -2.56975       -1.76781        1.18428
H         -4.03091       -0.87027        1.68875
H         -4.58278       -0.45838       -0.84977
H         -3.10377       -1.36576       -1.27994
H         -3.33772        0.30567       -1.87082
H          0.44642        2.02073       -0.92818
H          0.99752        1.60488        0.71075
H          3.14998        2.10144       -0.34477
H          2.58349        1.47607       -1.91392
