18
alkylCl17_conf-1
Cl        -1.89481        0.00000       -0.55460
C         -0.70146       -0.00000        0.82350
C          0.15149       -1.26453        0.77301
C          1.13166       -1.26453       -0.40040
C          1.99328        0.00000       -0.40904
C          1.13166        1.26453       -0.40040
C          0.15149        1.26453        0.77301
H         -1.33191       -0.00000        1.72235
H          0.71470       -1.30679        1.72286
H         -0.49805       -2.15200        0.74812
H          1.76561       -2.16339       -0.35366
H          0.56108       -1.32746       -1.34167
H          2.64794        0.00000        0.48157
H          2.66026        0.00000       -1.28519
H          0.56108        1.32746       -1.34167
H          1.76561        2.16339       -0.35366
H         -0.49805        2.15200        0.74813
H          0.71470        1.30679        1.72286
