32
alkylCl18_conf-2
O          1.51039        1.84168        0.23603
C          1.02863        0.76349       -0.04252
O          1.70256       -0.39369       -0.11602
C          3.13112       -0.46519        0.12176
C          3.88033        0.38527       -0.90297
C          3.43873       -1.94569       -0.08156
C          3.44643       -0.04315        1.55605
N         -0.29247        0.56786       -0.32485
C         -0.84976       -0.75056       -0.61226
C         -2.21084       -0.59303       -1.27422
C         -3.20553        0.15605       -0.38527
Cl        -4.07731       -1.00027        0.70821
C         -2.50569        1.23391        0.45692
C         -1.20674        1.69305       -0.19671
H          4.96354        0.23003       -0.79018
H          3.65762        1.45038       -0.76660
H          3.59584        0.08881       -1.92385
H          3.17822       -2.25739       -1.10356
H          2.86227       -2.55940        0.62572
H          4.50928       -2.13735        0.07999
H          2.85896       -0.64398        2.26651
H          4.51342       -0.21106        1.76462
H          3.21603        1.01772        1.71135
H         -0.16618       -1.29802       -1.27330
H         -0.95063       -1.34774        0.31215
H         -2.08796       -0.02296       -2.20972
H         -2.61678       -1.57506       -1.55133
H         -3.99784        0.59313       -1.00646
H         -2.26355        0.81337        1.44416
H         -3.17625        2.08821        0.62657
H         -1.40596        2.15448       -1.18162
H         -0.71207        2.45764        0.41447
