32
alkylCl18_conf-4
O         -1.29802        1.82322       -0.02815
C         -0.90795        0.68708       -0.19772
O         -1.68837       -0.40373       -0.18469
C         -3.12067       -0.31778        0.02548
C         -3.41599        0.26453        1.40706
C         -3.56556       -1.77544       -0.04798
C         -3.77003        0.49835       -1.09104
N          0.39871        0.35941       -0.43178
C          0.91088       -0.99777       -0.51242
C          1.82031       -1.29512        0.67957
C          2.91482       -0.24293        0.83756
Cl         4.14062       -0.42530       -0.49815
C          2.33847        1.17034        0.82290
C          1.41223        1.39777       -0.37086
H         -4.49709        0.21696        1.60475
H         -2.89961       -0.31952        2.18390
H         -3.08810        1.30911        1.46954
H         -3.31695       -2.20573       -1.02901
H         -3.06566       -2.37126        0.72966
H         -4.65246       -1.84912        0.10062
H         -3.49829        0.08228       -2.07277
H         -3.45000        1.54629       -1.04800
H         -4.86469        0.45509       -0.99088
H          1.48505       -1.10706       -1.44833
H          0.07303       -1.69968       -0.54778
H          2.26647       -2.29593        0.58571
H          1.21432       -1.28588        1.60171
H          3.48806       -0.41746        1.75701
H          3.15082        1.91147        0.82952
H          1.76094        1.30355        1.75357
H          1.99944        1.38499       -1.30470
H          0.90521        2.36600       -0.29604
