32
alkylCl18_conf-1
O         -1.38520       -1.78747        0.31885
C         -1.02646       -0.64599        0.11985
O         -1.84137        0.40530       -0.05778
C         -3.28393        0.27594        0.01267
C         -3.76836        1.70263       -0.22769
C         -3.70364       -0.20740        1.40004
C         -3.78266       -0.65409       -1.09240
N          0.28040       -0.26012        0.04192
C          0.68114        1.11225       -0.24329
C          2.12870        1.32564        0.18523
C          3.08745        0.39264       -0.56206
Cl         4.58127        0.15466        0.43851
C          2.42237       -0.95118       -0.88384
C          1.31643       -1.28326        0.10749
H         -4.86700        1.74000       -0.20565
H         -3.38021        2.37820        0.54851
H         -3.42533        2.06603       -1.20728
H         -3.29024        0.45570        2.17487
H         -4.80052       -0.18781        1.48145
H         -3.35199       -1.23001        1.58229
H         -4.88267       -0.65551       -1.10598
H         -3.42698       -1.67878       -0.93080
H         -3.42776       -0.30315       -2.07315
H          0.55461        1.34605       -1.31741
H          0.02721        1.80193        0.30484
H          2.41780        2.37537        0.03592
H          2.20679        1.12347        1.26402
H          3.44894        0.86221       -1.48614
H          3.17494       -1.75040       -0.91216
H          1.98095       -0.88863       -1.89205
H          0.84940       -2.24876       -0.12148
H          1.73405       -1.36003        1.12751
