29
alkylCl19_conf-2
Cl         3.94601       -1.28130        0.09878
C          2.68509       -0.12247       -0.42506
C          1.27437       -0.57621       -0.04845
N          0.54963        0.68272       -0.03567
C         -0.80330        0.82038       -0.01113
O         -1.39568       -0.38289       -0.00260
C         -2.83930       -0.52437        0.01628
C         -3.03695       -2.03696        0.01545
C         -3.44490        0.09904       -1.24043
C         -3.40982        0.09268        1.29237
O         -1.36333        1.89543        0.00270
C          1.41815        1.85381       -0.01973
C          2.80375        1.25329        0.22267
H          2.78007       -0.04355       -1.51721
H          1.28006       -1.06207        0.94303
H          0.84727       -1.28522       -0.77016
H         -2.59189       -2.48392       -0.88538
H         -4.10908       -2.28008        0.03327
H         -2.56062       -2.48825        0.89784
H         -3.29539        1.18555       -1.24985
H         -4.52387       -0.11252       -1.27458
H         -2.98198       -0.33317       -2.14034
H         -3.25830        1.17886        1.30339
H         -2.92292       -0.34500        2.17679
H         -4.48778       -0.11765        1.35468
H          1.36465        2.39230       -0.98173
H          1.11105        2.56102        0.76401
H          2.98872        1.12570        1.30045
H          3.61999        1.85578       -0.19653
