26
alkylCl21_conf-2
Cl         4.16392       -0.48947        0.38784
C          2.75599       -0.06577       -0.61825
C          1.47626       -0.89946       -0.37304
N          0.80575        0.33918       -0.02052
C         -0.50243        0.69245        0.04741
O         -1.26943       -0.40444       -0.02462
C         -2.71701       -0.33083        0.04322
C         -3.14919        0.25638        1.38591
C         -3.25625        0.47929       -1.13484
C         -3.14256       -1.79138       -0.06770
O         -0.87908        1.83813        0.15499
C          1.96675        1.19199       -0.18275
H          3.09569       -0.05093       -1.65973
H          1.06742       -1.40267       -1.26364
H          1.55617       -1.62564        0.45054
H         -4.24422        0.20413        1.47675
H         -2.70779       -0.31995        2.21276
H         -2.83553        1.30361        1.47530
H         -2.89184        0.05882       -2.08429
H         -2.94203        1.52794       -1.06592
H         -4.35546        0.43674       -1.14065
H         -4.23837       -1.87198       -0.02790
H         -2.79412       -2.22366       -1.01695
H         -2.71754       -2.38014        0.75803
H          1.85431        1.96902       -0.95568
H          2.32518        1.65589        0.74902
