33
molCl608_clust-6
C          0.65121       -1.23267       -1.62722
C          1.53192       -1.03946       -0.38267
C          3.01105       -1.20522       -0.76557
C          1.15025       -2.09408        0.66813
Si         1.24917        0.70221        0.33373
C          2.04302        2.00807       -0.76335
C          1.89457        0.82653        2.08398
O         -0.40038        1.01177        0.43173
C         -1.19624        1.63513       -0.53076
C         -2.67497        1.38274       -0.27232
C         -3.18124       -0.01639       -0.58095
Cl        -2.69280       -1.26394        0.62007
H          0.84430       -0.46852       -2.39905
H          0.84529       -2.21722       -2.08832
H         -0.41683       -1.19899       -1.36285
H          3.30891       -0.51667       -1.57250
H          3.20284       -2.23229       -1.12323
H          3.68316       -1.02931        0.09095
H          1.25080       -3.10997        0.24651
H          0.10710       -1.97276        0.99835
H          1.80031       -2.04218        1.55600
H          1.72217        1.91921       -1.81328
H          3.14078        1.92343       -0.74223
H          1.77962        3.01890       -0.41341
H          1.82863        1.86314        2.44840
H          1.30148        0.19225        2.75996
H          2.94664        0.50713        2.14921
H         -1.02398        2.72873       -0.52106
H         -0.94895        1.28802       -1.55457
H         -2.91299        1.64668        0.77005
H         -3.24767        2.07192       -0.91710
H         -4.27852       -0.03544       -0.59496
H         -2.81832       -0.36202       -1.55971
