12
molCl295_conf-8
Cl        -1.42796       -0.98802        0.02765
C         -1.36353        0.80269        0.09799
C         -0.06401        1.37911       -0.43633
C          1.19832        1.01278        0.35895
C          1.76879       -0.30351        0.05924
N          2.26953       -1.31522       -0.18588
H         -1.51867        1.08512        1.14880
H         -2.21387        1.17536       -0.48765
H          0.06399        1.10383       -1.49421
H         -0.17113        2.47563       -0.40541
H          1.98878        1.74962        0.14831
H          1.00216        1.06687        1.44205
