19
molCl1233_conf-1
C          2.73034       -0.28891       -0.28799
O          1.44015       -0.27941       -0.84282
C          0.36187       -0.28365        0.06191
C          0.40810       -1.44884        1.03994
C         -0.83946       -0.37977       -0.89514
Cl        -2.40976       -0.19008       -0.06394
O          0.35437        0.86998        0.84835
C          0.20446        2.09989        0.18552
H          2.82780        0.45185        0.52307
H          3.00693       -1.28330        0.10412
H          3.42880       -0.02794       -1.09390
H          1.21395       -1.29868        1.77018
H         -0.54105       -1.50362        1.58805
H          0.57223       -2.39249        0.50086
H         -0.83055       -1.35732       -1.39130
H         -0.76574        0.39922       -1.66319
H          0.87204        2.17679       -0.68921
H          0.47219        2.88515        0.90434
H         -0.83875        2.26490       -0.13570
