21
molCl229_conf-5
Cl         2.69450        0.18638       -0.21223
C          1.14419       -0.70331       -0.42738
C          0.16796       -0.47302        0.72415
C         -1.07593       -1.36437        0.55136
C         -2.00466       -0.88757       -0.56924
C         -2.39987        0.57817       -0.38123
C         -1.17038        1.47707       -0.23965
C         -0.25130        0.99625        0.88515
H          0.73816       -0.38041       -1.39487
H          1.40674       -1.76700       -0.50368
H          0.69007       -0.78603        1.64339
H         -0.77487       -2.41165        0.38340
H         -1.63457       -1.35359        1.50297
H         -2.90219       -1.52498       -0.60294
H         -1.50986       -1.00996       -1.54874
H         -3.01744        0.66869        0.53060
H         -3.03058        0.91515       -1.21894
H         -0.61621        1.49720       -1.19468
H         -1.47725        2.51734       -0.04904
H         -0.78277        1.09571        1.84733
H          0.64424        1.63170        0.95413
