38
molCl921_clust-8
C          2.85774        3.03257       -0.73117
C          2.57710        1.64750       -0.15847
C          3.85153        0.86958        0.16852
C          3.66391       -0.47237        0.88319
C          2.82445       -1.51477        0.13041
C          1.32654       -1.45255        0.42576
C          0.49859       -2.43600       -0.39900
C         -1.01810       -2.36581       -0.17001
C         -1.77726       -1.37102       -1.05629
C         -1.43561        0.11324       -0.90070
C         -1.62948        0.69195        0.50200
C         -3.00337        0.47589        1.11193
Cl        -4.32855        1.15991        0.09878
H          1.92667        3.56643       -0.97331
H          3.42343        3.65182       -0.01698
H          3.45475        2.96598       -1.65464
H          1.96962        1.07763       -0.88129
H          1.95940        1.74046        0.75237
H          4.41197        0.70030       -0.76893
H          4.50171        1.50744        0.79284
H          3.21705       -0.29867        1.87873
H          4.66613       -0.88735        1.07641
H          2.98944       -1.40107       -0.95673
H          3.18451       -2.52758        0.37882
H          1.16379       -1.65635        1.49971
H          0.96555       -0.42888        0.26138
H          0.70955       -2.28138       -1.47297
H          0.85349       -3.45598       -0.17290
H         -1.21649       -2.15870        0.89720
H         -1.45133       -3.36139       -0.35728
H         -1.61106       -1.65006       -2.11076
H         -2.86025       -1.50263       -0.89038
H         -2.06520        0.68466       -1.60097
H         -0.39525        0.29899       -1.21393
H         -1.41041        1.77161        0.48137
H         -0.90522        0.24549        1.20533
H         -3.08066        0.96230        2.09271
H         -3.23201       -0.59087        1.23795
