12
molCl1933_conf-4
N          2.61114        0.81825       -0.00013
C          1.59488       -0.08582        0.00004
O          1.78278       -1.28435        0.00002
C          0.19812        0.52291        0.00028
C         -0.86915       -0.55357       -0.00003
Cl        -2.51065        0.17646       -0.00006
H          2.45029        1.81447       -0.00022
H          3.56161        0.47240       -0.00033
H          0.08258        1.17283       -0.88260
H          0.08261        1.17216        0.88364
H         -0.78958       -1.19273       -0.88705
H         -0.78975       -1.19314        0.88670
