38
molCl921_clust-14
C         -6.27528       -1.49261       -0.27220
C         -4.77107       -1.35322       -0.06636
C         -4.28299        0.09232       -0.12112
C         -2.77877        0.24047        0.08822
C         -2.29442        1.68788        0.02309
C         -0.80785        1.87259        0.32991
C          0.13289        1.22209       -0.68353
C          1.61729        1.49368       -0.43032
C          2.14702        1.02956        0.93022
C          1.86734       -0.43777        1.27189
C          2.36685       -1.49544        0.28270
C          3.87241       -1.68957        0.19259
Cl         4.73287       -0.41222       -0.74870
H         -6.59465       -2.54454       -0.22785
H         -6.83491       -0.94048        0.49957
H         -6.58128       -1.09127       -1.25144
H         -4.23664       -1.94431       -0.83049
H         -4.48820       -1.79338        0.90585
H         -4.56025        0.53406       -1.09539
H         -4.81863        0.68720        0.64077
H         -2.25212       -0.36740       -0.66765
H         -2.50222       -0.19028        1.06821
H         -2.51691        2.10094       -0.97743
H         -2.88380        2.29034        0.73564
H         -0.58082        2.95170        0.38055
H         -0.60320        1.47501        1.33978
H         -0.04283        0.13301       -0.70904
H         -0.12651        1.58505       -1.69327
H          1.80667        2.57688       -0.52374
H          2.21247        1.01914       -1.22735
H          3.23101        1.21884        0.96305
H          1.70820        1.64957        1.73007
H          2.29564       -0.65802        2.26527
H          0.77903       -0.57868        1.38561
H          1.96390       -1.31655       -0.72745
H          1.95911       -2.47145        0.59830
H          4.33498       -1.70437        1.18958
H          4.11268       -2.63315       -0.31366
