21
molCl3002_conf-2
C          3.06081       -1.72312       -0.51640
O          1.93069       -0.89874       -0.76839
C          0.96194       -0.93083        0.13056
O          0.94709       -1.65475        1.09477
C         -0.14684        0.06596       -0.16939
C          0.07090        1.38589        0.58599
Cl         1.60360        2.19725        0.14468
N         -1.39152       -0.52871        0.25161
C         -2.58945       -0.11259       -0.25251
C         -3.80815       -0.84255        0.26962
O         -2.66440        0.77823       -1.07548
H          3.54793       -1.42929        0.42402
H          2.76386       -2.77901       -0.44826
H          3.74216       -1.57096       -1.35976
H         -0.18368        0.27775       -1.24714
H         -0.75357        2.06458        0.33594
H          0.08870        1.20027        1.66833
H         -1.33209       -1.23602        0.97543
H         -4.52778       -0.10071        0.64123
H         -4.28458       -1.36775       -0.57024
H         -3.58368       -1.56574        1.06500
