18
molCl267_conf-1
Cl        -3.51512       -0.00000       -0.14544
C         -1.75820       -0.00002       -0.52272
C         -0.91033        0.00003        0.74374
C          0.56094        0.00002        0.40162
C          1.25139        1.20279        0.21363
C          2.59706        1.20514       -0.14919
C          3.27388       -0.00002       -0.33224
C          2.59704       -1.20516       -0.14917
C          1.25137       -1.20278        0.21365
H         -1.55802       -0.89030       -1.13400
H         -1.55802        0.89021       -1.13408
H         -1.16562       -0.88514        1.34585
H         -1.16561        0.88526        1.34577
H          0.72749        2.15166        0.36015
H          3.12081        2.15373       -0.28663
H          4.32893       -0.00003       -0.61417
H          3.12077       -2.15376       -0.28659
H          0.72744       -2.15163        0.36019
