38
molCl921_clust-7
C          3.76531       -2.30733       -0.86533
C          4.28150       -1.26463        0.12257
C          3.45256        0.02048        0.17342
C          2.01335       -0.17686        0.64858
C          1.23094        1.11902        0.86423
C          1.05837        1.96578       -0.39661
C          0.09641        3.14703       -0.24548
C         -1.35024        2.82847        0.15396
C         -2.13046        1.91207       -0.80063
C         -1.94489        0.40061       -0.62387
C         -2.47985       -0.14481        0.69750
C         -2.18891       -1.61665        0.92402
Cl        -2.97870       -2.67734       -0.30122
H          3.68639       -1.88587       -1.88057
H          2.76929       -2.68244       -0.58450
H          4.43903       -3.17564       -0.91615
H          5.32036       -1.00357       -0.13878
H          4.32668       -1.70677        1.13351
H          3.95051        0.74262        0.84415
H          3.45367        0.48569       -0.82786
H          2.02623       -0.74949        1.59282
H          1.46426       -0.80269       -0.07774
H          0.24110        0.85758        1.27199
H          1.72338        1.72645        1.64488
H          2.03927        2.36170       -0.70708
H          0.72941        1.32085       -1.22993
H          0.51118        3.84698        0.50094
H          0.07890        3.70247       -1.19912
H         -1.88431        3.79014        0.22018
H         -1.37811        2.42049        1.17855
H         -3.20731        2.13014       -0.69677
H         -1.87392        2.18226       -1.83961
H         -2.46214       -0.11879       -1.44572
H         -0.88313        0.12409       -0.71921
H         -3.56656        0.03014        0.76795
H         -2.02513        0.39363        1.54743
H         -1.11040       -1.82198        0.86464
H         -2.55523       -1.95219        1.90264
