33
molCl608_clust-12
C         -2.67239       -0.78755       -1.67562
C         -2.18039       -0.95477       -0.22887
C         -1.22740       -2.15863       -0.15332
C         -3.38084       -1.18470        0.70292
Si        -1.24871        0.60876        0.29885
C         -0.63003        0.49460        2.07037
C         -2.28230        2.16288        0.10206
O          0.06959        0.67501       -0.74292
C          1.11520        1.60634       -0.70607
C          2.45804        0.89910       -0.83217
C          2.68291       -0.08301        0.30265
Cl         4.27324       -0.90832        0.16653
H         -3.17632       -1.70802       -2.01894
H         -3.39717        0.03691       -1.77045
H         -1.83679       -0.58454       -2.36312
H         -0.35517       -2.02003       -0.81032
H         -1.74586       -3.08028       -0.47064
H         -0.85750       -2.32891        0.87080
H         -3.06891       -1.33692        1.74886
H         -3.93956       -2.08558        0.39460
H         -4.08857       -0.33988        0.68193
H         -0.02129        1.37344        2.33687
H         -0.01308       -0.40337        2.22779
H         -1.47253        0.45619        2.77886
H         -1.70283        3.05383        0.39257
H         -2.60636        2.29776       -0.94107
H         -3.18057        2.13131        0.73875
H          1.00464        2.32663       -1.53612
H          1.10016        2.19907        0.23127
H          2.49530        0.36096       -1.79213
H          3.26545        1.64843       -0.84369
H          2.66713        0.42101        1.27957
H          1.91315       -0.86486        0.30133
