22
molCl431_clust-5
Cl         3.46692       -1.07174       -0.02728
C          3.23099        0.67164       -0.40841
C          2.08812        1.31799        0.35779
O          0.81598        1.02422       -0.12820
C          0.23738       -0.18902        0.27738
C         -1.26128       -0.13925        0.10517
C         -1.94333        1.07615        0.02003
C         -3.33254        1.09796       -0.10134
C         -4.05531       -0.09318       -0.13509
C         -3.37930       -1.31065       -0.05300
C         -1.99126       -1.33169        0.06108
H          3.05057        0.74665       -1.48874
H          4.17751        1.17298       -0.16596
H          2.21232        2.40836        0.25112
H          2.17749        1.07513        1.43492
H          0.47714       -0.38310        1.34313
H          0.64966       -1.03995       -0.29293
H         -1.37163        2.00483        0.03914
H         -3.85416        2.05539       -0.17124
H         -5.14323       -0.07436       -0.23023
H         -3.93594       -2.24998       -0.08560
H         -1.46599       -2.28981        0.11412
