38
molCl921_clust-1
C          4.51169        0.22454       -0.72037
C          3.32759       -0.12676        0.17316
C          2.40312       -1.17987       -0.43284
C          1.19569       -1.50619        0.44099
C          0.27462       -2.56361       -0.16485
C         -1.00248       -2.83179        0.63858
C         -1.95559       -1.63777        0.74661
C         -2.58876       -1.22556       -0.58293
C         -3.33523        0.11081       -0.54507
C         -2.48221        1.31562       -0.13434
C         -1.22539        1.50917       -0.97950
C         -0.35748        2.67779       -0.55148
Cl         0.33943        2.44053        1.09720
H          5.15859        0.98342       -0.25530
H          5.13234       -0.66171       -0.92895
H          4.17322        0.62405       -1.69003
H          2.74101        0.78165        0.39186
H          3.69494       -0.48858        1.14928
H          2.04826       -0.82610       -1.41888
H          2.97635       -2.10288       -0.63609
H          0.64068       -0.57164        0.62792
H          1.53936       -1.84853        1.43372
H          0.01373       -2.26692       -1.19621
H          0.83504       -3.50851       -0.26823
H         -1.53968       -3.68327        0.18602
H         -0.71964       -3.15569        1.65481
H         -2.75814       -1.87465        1.46564
H         -1.41217       -0.78526        1.18529
H         -3.28488       -2.01631       -0.91039
H         -1.81455       -1.18068       -1.36635
H         -3.77165        0.29871       -1.54133
H         -4.18825        0.03492        0.15052
H         -3.09969        2.22826       -0.19446
H         -2.18619        1.22580        0.92280
H         -1.50708        1.67958       -2.03421
H         -0.60646        0.59769       -0.97001
H          0.49726        2.81199       -1.22629
H         -0.92615        3.61723       -0.51132
