21
molCl3002_conf-11
C          1.21898        2.93051       -0.13781
O          0.85747        1.64945       -0.63007
C         -0.18216        1.06823       -0.02709
O         -0.85548        1.59344        0.81195
C         -0.42876       -0.33514       -0.59744
C         -1.43830       -1.10855        0.25383
Cl        -3.11841       -0.59005       -0.08461
N          0.80666       -1.06535       -0.77758
C          1.72847       -1.14278        0.22845
C          3.04787       -1.78122       -0.14194
O          1.49536       -0.69559        1.33330
H          1.49964        2.86628        0.92311
H          2.07447        3.26056       -0.73744
H          0.38515        3.63957       -0.24035
H         -0.86566       -0.19119       -1.59795
H         -1.37167       -2.17555        0.00997
H         -1.24123       -0.95772        1.32130
H          1.06670       -1.34896       -1.71135
H          3.49860       -2.20880        0.76114
H          2.94259       -2.56008       -0.91016
H          3.72231       -1.00065       -0.52613
