22
molCl431_clust-7
Cl        -3.47408        0.60750        0.04399
C         -2.01920        0.39767       -0.98413
C         -1.38155       -0.97188       -0.81910
O         -1.05754       -1.33825        0.49034
C         -0.28715       -0.42799        1.23175
C          1.05599       -0.10695        0.61076
C          1.86033       -1.13762        0.10986
C          3.10024       -0.85592       -0.45702
C          3.55570        0.46205       -0.52758
C          2.76158        1.49430       -0.03343
C          1.51540        1.20912        0.52663
H         -1.32293        1.20762       -0.72860
H         -2.32711        0.53079       -2.02970
H         -0.48674       -0.98258       -1.47463
H         -2.07228       -1.74638       -1.18241
H         -0.13750       -0.91173        2.20907
H         -0.84744        0.50592        1.42423
H          1.49759       -2.16739        0.16305
H          3.71841       -1.66880       -0.84482
H          4.52922        0.68273       -0.97080
H          3.10931        2.52827       -0.08876
H          0.89113        2.02344        0.90649
