22
molCl431_clust-1
Cl         2.64456        1.31660       -0.01952
C          2.80766       -0.35504       -0.67799
C          1.49277       -1.10751       -0.80052
O          1.01798       -1.65517        0.39534
C          0.28058       -0.80230        1.24562
C         -0.98466       -0.27030        0.60883
C         -1.90463       -1.15795        0.03746
C         -3.07239       -0.68406       -0.55333
C         -3.33615        0.68701       -0.58072
C         -2.42302        1.57777       -0.02142
C         -1.24990        1.09982        0.56482
H          3.49614       -0.89603       -0.01577
H          3.27087       -0.24650       -1.66764
H          1.68182       -1.96289       -1.46975
H          0.73711       -0.46649       -1.29102
H          0.89750        0.03623        1.60852
H          0.02427       -1.42613        2.11520
H         -1.69131       -2.22987        0.05412
H         -3.78407       -1.38622       -0.99369
H         -4.25309        1.05939       -1.04298
H         -2.61863        2.65207       -0.04819
H         -0.52361        1.80100        0.98381
