27
molCl1174_clust-1
C          5.28327        0.03015        0.58108
O          3.93951        0.42542        0.36781
C          3.09196       -0.53955       -0.00907
O          3.42991       -1.68591       -0.16276
C          1.70299       -0.03502       -0.21150
C          1.35703        1.30636       -0.01743
C          0.04542        1.72143       -0.22175
C         -0.94492        0.81632       -0.62404
C         -2.37427        1.26815       -0.79687
C         -3.17827        1.24447        0.51106
C         -3.28995       -0.11758        1.17232
Cl        -4.11998       -1.32396        0.11913
C         -0.58642       -0.52454       -0.81566
C          0.72250       -0.94744       -0.61150
H          5.82641        0.93441        0.87738
H          5.34725       -0.72864        1.37442
H          5.71813       -0.39050       -0.33716
H          2.12233        2.01947        0.29082
H         -0.21622        2.77269       -0.07214
H         -2.88068        0.62854       -1.53543
H         -2.39180        2.29377       -1.19614
H         -4.18906        1.63937        0.32175
H         -2.70489        1.91868        1.24615
H         -2.30300       -0.53867        1.40694
H         -3.87635       -0.05963        2.09786
H         -1.35095       -1.24396       -1.12017
H          1.00710       -1.99078       -0.75971
