21
molCl229_conf-1
Cl         2.87907       -0.28001       -0.17109
C          1.52598        0.79114        0.34157
C          0.17436        0.33098       -0.18425
C         -0.23742       -1.04401        0.35171
C         -1.61490       -1.46326       -0.16086
C         -2.67826       -0.41435        0.16567
C         -2.27629        0.96323       -0.36175
C         -0.89602        1.38074        0.14797
H          1.53845        0.81131        1.44114
H          1.77116        1.79608       -0.02762
H          0.25229        0.26206       -1.28497
H          0.52242       -1.79123        0.07855
H         -0.25521       -1.00081        1.45693
H         -1.89417       -2.43993        0.26436
H         -1.56597       -1.60285       -1.25553
H         -2.80741       -0.35872        1.26155
H         -3.65420       -0.71242       -0.24881
H         -3.02615        1.71865       -0.07890
H         -2.25886        0.93806       -1.46579
H         -0.93794        1.51554        1.24477
H         -0.61327        2.35765       -0.27755
