19
molCl1233_conf-6
C          1.96665        0.08353        1.46230
O          0.68867       -0.28832        1.01613
C          0.48722       -0.31829       -0.36504
C          1.47129       -1.24060       -1.08702
C         -0.92867       -0.88109       -0.58480
Cl        -2.20820       -0.21773        0.47671
O          0.68713        0.93817       -0.95149
C         -0.08732        2.02320       -0.49774
H          1.87897        0.30556        2.53382
H          2.70476       -0.72817        1.33476
H          2.33610        0.98189        0.94030
H          1.16389       -1.37938       -2.13262
H          2.47014       -0.78545       -1.09320
H          1.51740       -2.21894       -0.58905
H         -0.91484       -1.96278       -0.40466
H         -1.22626       -0.69272       -1.62425
H         -1.10864        2.00571       -0.91280
H         -0.16172        2.04028        0.60125
H          0.41819        2.93603       -0.84111
