12
molCl295_conf-5
Cl         2.41534       -0.28570       -0.09849
C          0.71090       -0.19678        0.44891
C         -0.05183        0.87479       -0.31199
C         -1.50516        1.01032        0.16415
C         -2.28658       -0.21572       -0.01708
N         -2.87576       -1.19917       -0.16140
H          0.26837       -1.19069        0.29572
H          0.72825        0.01302        1.52751
H         -0.03045        0.64494       -1.38796
H          0.44882        1.84536       -0.17914
H         -1.54266        1.28299        1.23118
H         -2.00678        1.81977       -0.38711
