23
molCl3004_conf-9
C         -1.49876        1.72005        0.86571
Si        -1.61859        0.06477       -0.03004
C         -3.33746       -0.64680        0.26003
C         -1.33043        0.31182       -1.87501
C         -0.35154       -1.18038        0.64401
C          1.08274       -1.11307        0.10113
C          1.77397        0.20359        0.40949
Cl         3.48499        0.20186       -0.14403
H         -1.63310        1.58882        1.95148
H         -0.53104        2.21963        0.70638
H         -2.28682        2.40511        0.51378
H         -3.51352       -0.83459        1.33136
H         -4.11847        0.04631       -0.09087
H         -3.46927       -1.60098       -0.27447
H         -0.33777        0.74405       -2.07878
H         -1.39573       -0.64490       -2.41763
H         -2.08347        0.99209       -2.30350
H         -0.34233       -1.10734        1.74691
H         -0.75496       -2.18409        0.42403
H          1.68918       -1.92915        0.52583
H          1.08489       -1.26341       -0.99087
H          1.28980        1.04990       -0.09598
H          1.78681        0.40894        1.48916
