35
molCl3000_conf-11
C          3.09883       -1.38606        1.30613
C          3.26800       -0.61145       -0.00009
C          4.27730        0.52769        0.13519
O          1.98789       -0.09631       -0.44520
C          1.28261        0.77757        0.28817
N          0.10849        1.10883       -0.32918
C         -0.83630        1.97175        0.35340
C         -2.12975        1.22067        0.66314
C         -2.71669        0.57752       -0.59789
C         -1.66110       -0.27815       -1.30605
C         -0.38011        0.51515       -1.55960
C         -4.01558       -0.17324       -0.33713
Cl        -3.81797       -1.58051        0.77263
O          1.63164        1.22781        1.35903
C          3.67035       -1.55230       -1.13200
H          4.04830       -1.87430        1.57138
H          2.33256       -2.16700        1.18805
H          2.80214       -0.71756        2.12313
H          3.98916        1.21239        0.94176
H          4.34076        1.09264       -0.80699
H          5.27285        0.11468        0.35563
H         -0.35996        2.33968        1.26905
H         -1.05335        2.84357       -0.29202
H         -1.92224        0.43542        1.40791
H         -2.86057        1.91167        1.11400
H         -3.00180        1.39571       -1.28900
H         -1.42526       -1.15368       -0.67963
H         -2.05640       -0.65809       -2.26238
H         -0.58230        1.32589       -2.28490
H          0.39971       -0.12253       -1.98594
H         -4.76265        0.48342        0.12890
H         -4.43310       -0.57424       -1.27066
H          3.75181       -1.00176       -2.08055
H          4.64254       -2.01680       -0.91293
H          2.92235       -2.34903       -1.25548
