19
molCl238_conf-8
Cl         2.69179        0.18313       -0.18885
C          1.14888       -0.71440       -0.41585
C          0.15321       -0.46350        0.71470
C         -1.10250       -1.33458        0.52831
C         -2.02522       -0.78107       -0.55603
O         -2.36711        0.55782       -0.31628
C         -1.24604        1.40494       -0.27006
C         -0.27879        1.00540        0.83887
H          1.41403       -1.77891       -0.46518
H          0.75926       -0.41293       -1.39718
H          0.65516       -0.76356        1.64864
H         -0.83211       -2.37769        0.29502
H         -1.65879       -1.35189        1.47914
H         -2.96587       -1.34928       -0.58722
H         -1.55228       -0.88111       -1.55610
H         -0.72975        1.40730       -1.25332
H         -1.62551        2.42299       -0.10421
H         -0.78570        1.14179        1.80758
H          0.60073        1.66669        0.83381
