23
molCl3004_conf-10
C          1.75279       -0.67798        1.77543
Si         1.67425       -0.09213       -0.01328
C          2.44250        1.62436       -0.14601
C          2.60811       -1.29440       -1.12011
C         -0.12964       -0.02925       -0.57853
C         -1.02917        0.92230        0.21093
C         -2.48340        0.93285       -0.23188
Cl        -3.29213       -0.65538        0.03484
H          1.23453        0.01985        2.45210
H          1.28192       -1.66753        1.88862
H          2.79639       -0.76045        2.11869
H          1.93004        2.34686        0.50912
H          3.50413        1.60578        0.14794
H          2.38747        2.00667       -1.17798
H          3.66641       -1.36832       -0.82319
H          2.17195       -2.30444       -1.06414
H          2.57653       -0.97259       -2.17326
H         -0.14969        0.24096       -1.65031
H         -0.54092       -1.05203       -0.51756
H         -0.99408        0.68371        1.28715
H         -0.66294        1.95991        0.11381
H         -3.06835        1.67367        0.32883
H         -2.57389        1.15187       -1.30500
