20
molCl910_clust-6
C         -2.82126       -0.64217        0.69425
C         -1.60858       -0.86758       -0.20434
C         -1.16124        0.37790       -0.97864
C         -0.56941        1.51532       -0.12992
C          0.94948        1.52408        0.07128
C          1.57292        0.35782        0.82544
Cl         1.88642       -1.08822       -0.20794
H         -2.62422        0.10714        1.47722
H         -3.68792       -0.28903        0.11228
H         -3.11738       -1.57206        1.20251
H         -0.76911       -1.26423        0.38783
H         -1.84753       -1.65932       -0.93333
H         -0.42930        0.08323       -1.74801
H         -2.03675        0.76673       -1.52645
H         -1.05962        1.53827        0.85906
H         -0.82579        2.47868       -0.59910
H          1.20412        2.43207        0.64493
H          1.46296        1.62724       -0.89900
H          2.55300        0.63709        1.23198
H          0.93692        0.02163        1.65664
