38
molCl921_clust-23
C         -5.93252        0.30398       -0.78379
C         -4.78614       -0.69217       -0.65043
C         -3.65661       -0.19957        0.25102
C         -2.50063       -1.18910        0.37287
C         -1.40329       -0.76763        1.35306
C         -0.74416        0.58519        1.07006
C         -0.11556        0.69246       -0.31771
C          0.63826        2.00010       -0.57450
C          1.80065        2.28970        0.38505
C          2.77779        1.12972        0.58245
C          3.46226        0.65676       -0.69772
C          4.27093       -0.61647       -0.52822
Cl         3.22081       -2.03779       -0.15955
H         -6.38302        0.52496        0.19701
H         -5.58242        1.25861       -1.20801
H         -6.72931       -0.07991       -1.43830
H         -4.37583       -0.92046       -1.64967
H         -5.17115       -1.64969       -0.25842
H         -3.28498        0.76471       -0.13878
H         -4.05943        0.01871        1.25718
H         -2.06521       -1.36208       -0.62687
H         -2.89872       -2.16737        0.69303
H         -1.82407       -0.74796        2.37336
H         -0.62034       -1.54546        1.36175
H         -1.47600        1.40177        1.20267
H          0.02731        0.75238        1.83991
H          0.55923       -0.16821       -0.47325
H         -0.90120        0.59408       -1.08525
H         -0.07110        2.84409       -0.52584
H          1.01079        1.99058       -1.61277
H          2.34721        3.17623        0.01949
H          1.40089        2.57505        1.37200
H          3.55018        1.42660        1.31244
H          2.24893        0.27603        1.03626
H          4.14792        1.43984       -1.06734
H          2.72335        0.49132       -1.49781
H          4.98810       -0.53759        0.30070
H          4.81912       -0.87166       -1.44394
