29
molCl542_conf-5
C         -3.72700        1.64198        0.10574
C         -3.18273        0.21693        0.10161
C         -3.69421       -0.55176       -1.11613
C         -3.52459       -0.49436        1.41010
O         -1.74949        0.41264        0.00083
C         -0.89574       -0.62220       -0.02496
O         -1.18072       -1.79826        0.01495
N          0.37795       -0.16082       -0.09954
C          0.92507        1.14493       -0.41614
C          2.30223        0.45705       -0.63119
C          3.34963        0.83953        0.38921
Cl         4.80117       -0.21053        0.25820
C          1.59360       -0.90089       -0.38410
H         -3.32441        2.20542        0.95996
H         -3.44398        2.16541       -0.81909
H         -4.82399        1.63008        0.17952
H         -3.39461       -0.03913       -2.04267
H         -3.29576       -1.57363       -1.13002
H         -4.79300       -0.59828       -1.08979
H         -3.12459       -1.51566        1.41615
H         -4.61690       -0.53866        1.53276
H         -3.10493        0.05821        2.26414
H          0.87600        1.87414        0.41019
H          0.49122        1.60749       -1.31738
H          2.70505        0.57072       -1.64664
H          2.96242        0.72835        1.41210
H          3.68526        1.87611        0.24997
H          1.51748       -1.55842       -1.26459
H          1.98330       -1.48966        0.46176
