19
molCl1233_conf-7
C          0.02747        2.18494       -0.14877
O         -0.45965        0.98301       -0.68289
C         -0.39861       -0.21432        0.05101
C         -0.39888       -0.01126        1.56590
C          0.79109       -1.05657       -0.43338
Cl         2.38805       -0.34497       -0.03765
O         -1.47845       -1.00122       -0.36316
C         -2.76459       -0.47304       -0.17368
H         -0.07019        2.93704       -0.94302
H         -0.55702        2.53131        0.72190
H          1.08944        2.11813        0.13666
H         -0.48608       -0.99375        2.04987
H          0.52985        0.46237        1.90846
H         -1.24719        0.60972        1.88497
H          0.72119       -1.13603       -1.52412
H          0.75212       -2.05694        0.01416
H         -3.07260       -0.49233        0.88744
H         -3.45608       -1.10717       -0.74330
H         -2.83435        0.55934       -0.55095
