19
molCl467_clust-4
C         -4.02882       -0.78220        0.03824
C         -2.81255        0.11665       -0.01686
O         -2.90810        1.31961       -0.03655
C         -1.46180       -0.57910       -0.03720
C         -0.27886        0.37484        0.02770
C          1.06472       -0.34915       -0.01912
C          2.23150        0.61943        0.04494
Cl         3.81177       -0.23576       -0.00937
H         -4.07514       -1.27473        1.02266
H         -3.96770       -1.57815       -0.71911
H         -4.93851       -0.18784       -0.11002
H         -1.42058       -1.19426       -0.95471
H         -1.43523       -1.30666        0.79376
H         -0.35467        1.09447       -0.80326
H         -0.35349        0.97810        0.94738
H          1.14421       -1.06125        0.81896
H          1.14448       -0.94478       -0.94360
H          2.21749        1.20390        0.97506
H          2.21870        1.31946       -0.80164
