16
molCl234_conf-1
Cl         2.53527        0.24885       -0.00396
C          1.10461       -0.80042        0.26449
C         -0.12453       -0.23559       -0.42936
C         -0.61775        1.11140        0.11013
C         -2.13033        0.98384       -0.05770
C         -2.34056       -0.49493        0.25292
O         -1.18593       -1.15383       -0.23125
H          0.93686       -0.87301        1.34782
H          1.34292       -1.79694       -0.12733
H          0.08943       -0.15867       -1.51227
H         -0.35573        1.21018        1.17681
H         -0.17713        1.96482       -0.42083
H         -2.42221        1.20195       -1.09707
H         -2.70303        1.64919        0.60320
H         -3.22635       -0.92501       -0.23859
H         -2.44560       -0.65812        1.34263
