20
molCl910_clust-7
C          2.60519       -0.03052       -1.16755
C          2.51707       -0.53819        0.26894
C          1.11182       -0.56539        0.87709
C          0.42267        0.80560        0.98013
C         -0.41635        1.23494       -0.23506
C         -1.89007        0.87231       -0.17564
Cl        -2.20970       -0.90310       -0.19512
H          3.63176       -0.11726       -1.55428
H          1.94662       -0.60733       -1.83694
H          2.31742        1.02954       -1.24660
H          3.17191        0.07873        0.90989
H          2.93168       -1.55917        0.31289
H          0.47038       -1.25645        0.30782
H          1.19167       -0.99671        1.88782
H         -0.22819        0.82290        1.87043
H          1.19441        1.57112        1.17001
H          0.01256        0.84057       -1.16861
H         -0.39011        2.33442       -0.32838
H         -2.35648        1.25488        0.74299
H         -2.43069        1.28491       -1.03742
