38
molCl921_clust-21
C         -5.48525        1.24476       -0.94183
C         -5.50293        0.13023        0.09981
C         -4.37359        0.21640        1.13113
C         -2.95210        0.22764        0.56200
C         -2.60312       -0.99316       -0.28809
C         -1.17261       -1.00012       -0.82994
C         -0.08260       -1.10716        0.23440
C          1.32487       -1.18809       -0.34912
C          2.41081       -1.28877        0.71822
C          3.83436       -1.41154        0.16961
C          4.34900       -0.26342       -0.70497
C          4.50684        1.08889       -0.02607
Cl         2.96276        2.00576        0.16654
H         -6.36290        1.18757       -1.60296
H         -5.49101        2.23724       -0.46261
H         -4.58957        1.19233       -1.58035
H         -5.47071       -0.84789       -0.40961
H         -6.46527        0.15009        0.63772
H         -4.51513        1.12830        1.73718
H         -4.47052       -0.63067        1.83245
H         -2.24736        0.30472        1.40590
H         -2.79410        1.14074       -0.03902
H         -2.77475       -1.91027        0.30502
H         -3.29831       -1.05276       -1.14215
H         -1.06310       -1.84352       -1.53354
H         -1.00576       -0.08593       -1.42792
H         -0.12971       -0.23782        0.91218
H         -0.27438       -1.99550        0.86379
H          1.49824       -0.29266       -0.96913
H          1.39485       -2.05652       -1.02977
H          2.34027       -0.41451        1.38589
H          2.21146       -2.17135        1.35041
H          4.53155       -1.54230        1.01561
H          3.90658       -2.33968       -0.42336
H          3.73108       -0.14289       -1.60926
H          5.35436       -0.54095       -1.06607
H          4.93505        0.98639        0.98118
H          5.16014        1.74617       -0.61368
