21
molCl3002_conf-1
C         -2.90717       -1.71858       -0.65940
O         -1.58006       -1.27712       -0.40315
C         -1.43499       -0.38061        0.57235
O         -2.34156        0.04528        1.23363
C          0.00773        0.06920        0.76033
C          0.08810        1.59356        0.68754
Cl        -0.30090        2.18252       -0.96376
N          0.92099       -0.59538       -0.12906
C          2.25238       -0.66020        0.15889
C          3.11539       -1.30749       -0.90195
O          2.70730       -0.20400        1.19041
H         -3.54134       -0.87299       -0.96025
H         -2.83504       -2.44976       -1.47146
H         -3.33944       -2.18363        0.23736
H          0.28519       -0.19307        1.79614
H         -0.63108        2.04429        1.38186
H          1.10682        1.91662        0.93165
H          0.56249       -0.92829       -1.01349
H          2.56053       -2.01445       -1.53407
H          3.53714       -0.51949       -1.54405
H          3.94898       -1.82308       -0.41002
