33
molCl608_clust-14
C          2.87974        1.62642        0.63859
C          1.54002        1.18314        0.02353
C          1.45543        1.69873       -1.42195
C          0.39446        1.78625        0.85415
Si         1.48160       -0.72507        0.03329
C          1.36945       -1.37530        1.79482
C          2.99308       -1.45761       -0.79093
O          0.20116       -1.30749       -0.88436
C         -1.13186       -0.90642       -0.97434
C         -1.92437       -1.17665        0.30123
C         -3.39093       -0.80622        0.19974
Cl        -3.63390        0.97057       -0.00324
H          2.94182        2.72860        0.66465
H          2.99803        1.26999        1.67493
H          3.74220        1.26403        0.05713
H          2.27211        1.30410       -2.04719
H          1.52863        2.80040       -1.44253
H          0.50584        1.42218       -1.90495
H         -0.60156        1.53962        0.45526
H          0.47094        2.88798        0.86354
H          0.42781        1.45131        1.90332
H          2.27739       -1.11792        2.36338
H          1.28222       -2.47320        1.78342
H          0.50561       -0.97456        2.34591
H          2.87340       -2.54842       -0.88012
H          3.13569       -1.05359       -1.80463
H          3.90689       -1.26244       -0.20891
H         -1.21489        0.16449       -1.23364
H         -1.59373       -1.46510       -1.80735
H         -1.85738       -2.25149        0.54019
H         -1.47468       -0.63328        1.14765
H         -3.87420       -1.28620       -0.66270
H         -3.93771       -1.08934        1.10756
