38
molCl921_clust-29
C          6.25825       -1.32604        0.20753
C          5.49093       -0.14820       -0.38268
C          4.21426        0.18775        0.38348
C          3.45750        1.38615       -0.18977
C          2.13603        1.71782        0.52107
C          0.87907        1.09343       -0.09198
C          0.85841       -0.43356       -0.14482
C         -0.43534       -1.02811       -0.70486
C         -1.67184       -0.80588        0.16421
C         -2.92843       -1.45148       -0.41443
C         -4.15884       -1.37683        0.48970
C         -4.55401        0.01699        0.94763
Cl        -4.86820        1.13459       -0.43134
H          6.55969       -1.12319        1.24756
H          5.64072       -2.23838        0.21557
H          7.17015       -1.54516       -0.36776
H          5.23401       -0.36393       -1.43459
H          6.14260        0.74270       -0.40995
H          3.56141       -0.70087        0.40535
H          4.46669        0.39648        1.43889
H          3.26409        1.21973       -1.26540
H          4.12663        2.26202       -0.14510
H          2.21087        1.42239        1.58309
H          1.99333        2.81027        0.52739
H          0.00639        1.45352        0.47780
H          0.74842        1.48341       -1.11785
H          1.69764       -0.78518       -0.76715
H          1.03926       -0.83882        0.86770
H         -0.29513       -2.11322       -0.84922
H         -0.62241       -0.61167       -1.71097
H         -1.48017       -1.20432        1.17797
H         -1.84576        0.27645        0.28296
H         -2.72752       -2.51354       -0.63462
H         -3.16455       -0.97701       -1.38133
H         -3.98186       -1.96687        1.40710
H         -5.01718       -1.84304       -0.01989
H         -3.76778        0.48766        1.55255
H         -5.47612       -0.00960        1.54221
