12
molCl295_conf-3
Cl         2.16984       -0.59842       -0.12234
C          1.27935        0.93624        0.17568
C         -0.16943        0.85632       -0.26956
C         -0.97511       -0.20393        0.48982
C         -2.37284       -0.25759        0.06295
N         -3.47412       -0.28273       -0.28559
H          1.81181        1.72208       -0.37433
H          1.36250        1.14550        1.25119
H         -0.21319        0.65165       -1.35017
H         -0.62332        1.84861       -0.11379
H         -0.52444       -1.19695        0.33912
H         -0.95361       -0.00480        1.57349
