21
molCl3002_conf-3
C          0.72499        2.95047       -0.84187
O          0.18614        1.67690       -0.51649
C          0.82519        0.99430        0.42722
O          1.81614        1.37892        0.98816
C          0.14882       -0.34042        0.75662
C          1.19153       -1.44029        0.86969
Cl         1.88881       -1.83351       -0.74517
N         -0.93014       -0.69545       -0.11694
C         -2.22295       -0.35100        0.17762
C         -3.21312       -0.59273       -0.93971
O         -2.53659        0.12361        1.24932
H          1.75498        2.85137       -1.21268
H          0.07729        3.36710       -1.62057
H          0.72962        3.60532        0.04081
H         -0.29539       -0.19449        1.75635
H          2.01891       -1.11400        1.50978
H          0.74258       -2.36073        1.26060
H         -0.68729       -0.97369       -1.05985
H         -2.96899       -1.48826       -1.52850
H         -4.21700       -0.68966       -0.51075
H         -3.20577        0.27742       -1.61408
