38
molCl921_clust-13
C         -3.65139       -1.25840        1.51212
C         -3.73599       -1.81911        0.09372
C         -2.67726       -1.31214       -0.89533
C         -2.96706        0.02323       -1.58990
C         -3.02817        1.27675       -0.71032
C         -1.80035        1.52220        0.16885
C         -0.48296        1.60893       -0.59862
C          0.71796        2.00769        0.26247
C          0.99071        1.09368        1.46173
C          1.14437       -0.39320        1.12502
C          2.20058       -0.72647        0.06752
C          3.59536       -0.27187        0.45882
Cl         4.81960       -0.76240       -0.76429
H         -4.38480       -1.74686        2.17144
H         -2.65230       -1.43132        1.94425
H         -3.84583       -0.17736        1.55106
H         -4.74062       -1.62711       -0.32301
H         -3.64818       -2.91624        0.15827
H         -1.69629       -1.27090       -0.38868
H         -2.56045       -2.06744       -1.68949
H         -3.92346       -0.06601       -2.13361
H         -2.20127        0.17332       -2.36975
H         -3.17501        2.14924       -1.37045
H         -3.92489        1.23910       -0.07007
H         -1.95009        2.45896        0.73370
H         -1.73128        0.72659        0.92877
H         -0.27702        0.64252       -1.08974
H         -0.58902        2.33967       -1.41907
H          0.56921        3.03521        0.63622
H          1.61410        2.05278       -0.37989
H          1.89464        1.45501        1.98087
H          0.17643        1.19748        2.19754
H          1.37376       -0.94504        2.05258
H          0.17731       -0.79167        0.77632
H          1.93716       -0.27092       -0.90067
H          2.21910       -1.81475       -0.09948
H          3.90717       -0.71199        1.41649
H          3.66368        0.82073        0.54280
