19
molCl1233_conf-4
C         -1.91090       -1.62873       -0.37986
O         -1.39035       -0.80817        0.63607
C         -0.27339       -0.00733        0.32212
C          0.02531        0.77485        1.59380
C          0.89291       -0.91246       -0.09773
Cl         2.43960       -0.03866       -0.30443
O         -0.52963        0.80415       -0.78735
C         -1.50065        1.80645       -0.63471
H         -2.93830       -1.88701       -0.09036
H         -1.93495       -1.10831       -1.35122
H         -1.34105       -2.56837       -0.49295
H          0.81830        1.51100        1.41142
H         -0.88274        1.28320        1.94319
H          0.34966        0.08587        2.38505
H          0.66638       -1.38176       -1.06247
H          1.04287       -1.68709        0.66482
H         -2.41800        1.41802       -0.16012
H         -1.12691        2.65938       -0.04218
H         -1.74839        2.16779       -1.64136
