22
molCl372_clust-3
Cl        -3.59691       -1.19222       -0.00656
C         -2.41750        0.06327       -0.51311
C         -1.72494        0.68700        0.68580
C         -0.74409        1.77941        0.27058
O          0.21444        1.33489       -0.66181
C          1.24947        0.55271       -0.26991
C          2.04603        0.03828       -1.30227
C          3.14391       -0.75928       -1.00754
C          3.46744       -1.06031        0.31806
C          2.67526       -0.54866        1.34031
C          1.56792        0.25546        1.05956
H         -2.97460        0.81320       -1.09173
H         -1.69425       -0.42121       -1.18084
H         -2.47448        1.12968        1.36078
H         -1.20992       -0.10279        1.25397
H         -1.28059        2.59100       -0.24313
H         -0.26064        2.22416        1.15752
H          1.78022        0.28519       -2.33158
H          3.75522       -1.15215       -1.82312
H          4.32895       -1.68952        0.54833
H          2.91338       -0.77504        2.38211
H          0.96762        0.63882        1.88483
