29
molCl542_conf-7
C          3.72714        1.64191        0.10566
C          3.18285        0.21689        0.10184
C          3.52423       -0.49393        1.41069
C          3.69459       -0.55225       -1.11549
O          1.74956        0.41268        0.00056
C          0.89581       -0.62209       -0.02544
O          1.18068       -1.79819        0.01493
N         -0.37783       -0.16073       -0.10086
C         -1.59362       -0.90093       -0.38432
C         -2.30243        0.45696       -0.63126
C         -3.34962        0.83951        0.38933
Cl        -4.80118       -0.21055        0.25868
C         -0.92525        1.14501       -0.41680
H          3.44440        2.16503       -0.81943
H          3.32433        2.20567        0.95957
H          4.82411        1.63001        0.17975
H          3.10430        0.05896        2.26438
H          3.12426       -1.51523        1.41701
H          4.61650       -0.53819        1.53375
H          4.79335       -0.59889       -1.08881
H          3.39533       -0.03988       -2.04228
H          3.29597       -1.57406       -1.12914
H         -1.98269       -1.48939        0.46206
H         -1.51817       -1.55879       -1.26462
H         -2.70551        0.57047       -1.64664
H         -3.68526        1.87610        0.25007
H         -2.96223        0.72843        1.41217
H         -0.49196        1.60792       -1.31814
H         -0.87589        1.87397        0.40973
