17
molCl480_clust-5
C          2.27862        1.30521        0.34907
C          1.64691        0.02184       -0.10741
O          1.80746       -0.50104       -1.17834
O          0.84350       -0.48286        0.84348
C          0.09326       -1.64214        0.51163
C         -1.10434       -1.35371       -0.38471
C         -2.08425       -0.31468        0.13742
Cl        -1.54232        1.38363       -0.12990
H          3.03639        1.62305       -0.37493
H          2.72059        1.18248        1.34693
H          1.48988        2.06798        0.42569
H          0.74678       -2.38084        0.02339
H         -0.23832       -2.04637        1.47891
H         -1.65553       -2.30328       -0.49379
H         -0.76158       -1.07147       -1.39097
H         -2.26017       -0.42330        1.21679
H         -3.04753       -0.39790       -0.38093
