38
molCl921_clust-17
C         -5.27348       -1.46170        1.21029
C         -3.99957       -0.71065        0.83855
C         -4.00751       -0.19108       -0.59881
C         -2.79023        0.65350       -0.97725
C         -1.46320       -0.10398       -0.95532
C         -0.26821        0.70237       -1.46892
C          0.01846        1.99955       -0.70475
C          0.21541        1.83145        0.80583
C          1.28130        0.81006        1.20910
C          2.67572        1.12036        0.67009
C          3.75802        0.13795        1.11608
C          3.50673       -1.31579        0.75079
Cl         3.28845       -1.55607       -1.02383
H         -5.24042       -1.82790        2.24733
H         -6.16022       -0.81539        1.11159
H         -5.42614       -2.33271        0.55319
H         -3.13115       -1.37282        0.99164
H         -3.85599        0.14064        1.52768
H         -4.09013       -1.04712       -1.29313
H         -4.92070        0.40996       -0.75209
H         -2.73624        1.52213       -0.29735
H         -2.94283        1.07143       -1.98768
H         -1.25386       -0.45791        0.06843
H         -1.56308       -1.01648       -1.56847
H          0.62706        0.05828       -1.45147
H         -0.43401        0.95332       -2.53083
H          0.91234        2.47293       -1.14394
H         -0.80126        2.71842       -0.87050
H         -0.74228        1.54115        1.27042
H          0.47180        2.81334        1.23988
H          1.32194        0.75062        2.31103
H          0.96731       -0.18980        0.86420
H          2.65486        1.13541       -0.43129
H          2.97198        2.13508        0.98584
H          3.86474        0.16976        2.21548
H          4.72967        0.44740        0.69913
H          4.35292       -1.94952        1.04516
H          2.59931       -1.70938        1.22694
