23
molCl3004_conf-3
C         -2.90354       -0.45855       -1.03682
Si        -1.37708       -0.11240        0.01069
C         -1.82252        1.10005        1.38593
C         -0.77282       -1.73601        0.75043
C         -0.06181        0.66163       -1.11863
C          1.06208        1.47144       -0.46363
C          1.90298        0.72821        0.56024
Cl         2.71069       -0.72808       -0.12918
H         -2.66164       -1.12847       -1.87744
H         -3.69331       -0.94220       -0.44021
H         -3.31967        0.47110       -1.45657
H         -0.96372        1.30946        2.04353
H         -2.16852        2.06051        0.97101
H         -2.63105        0.69777        2.01689
H          0.13030       -1.61336        1.36688
H         -1.55486       -2.19217        1.37855
H         -0.52206       -2.45088       -0.04922
H          0.37580       -0.14510       -1.73173
H         -0.59381        1.31867       -1.82831
H          1.73380        1.87987       -1.23675
H          0.63669        2.34348        0.06436
H          2.70348        1.36814        0.95311
H          1.29964        0.37351        1.40718
