23
molCl3004_conf-4
C          2.90360       -0.45877       -1.03662
Si         1.37704       -0.11234        0.01065
C          0.77334       -1.73592        0.75090
C          1.82205        1.10074        1.38552
C          0.06170        0.66138       -1.11875
C         -1.06209        1.47130       -0.46362
C         -1.90306        0.72822        0.56009
Cl        -2.71062       -0.72827       -0.12917
H          3.31799        0.47039       -1.45922
H          3.69450       -0.93943       -0.43906
H          2.66237       -1.13142       -1.87526
H         -0.13156       -1.61426        1.36494
H          0.52603       -2.45235       -0.04846
H          1.55467       -2.18981        1.38161
H          2.63048        0.69907        2.01698
H          2.16786        2.06111        0.97015
H          0.96293        1.31033        2.04267
H         -0.37622       -0.14529       -1.73174
H          0.59355        1.31845       -1.82854
H         -0.63653        2.34337        0.06426
H         -1.73372        1.87991       -1.23676
H         -1.29995        0.37354        1.40721
H         -2.70366        1.36811        0.95284
