20
molCl995_clust-3
C          2.13712        2.00873        0.34171
C          2.52190        0.88267       -0.59722
O          1.43700       -0.02763       -0.78990
C          1.25767       -0.98244        0.13220
O          1.98070       -1.13836        1.08054
C          0.04590       -1.83239       -0.18152
C         -1.19362       -1.03293       -0.58757
C         -1.63925       -0.08052        0.50844
Cl        -3.10860        0.83367        0.03005
H          2.96391        2.72942        0.42355
H          1.25045        2.54311       -0.03029
H          1.92544        1.61790        1.34704
H          2.75412        1.26123       -1.60146
H          3.39101        0.32975       -0.21269
H          0.32530       -2.50826       -1.00588
H         -0.14172       -2.45805        0.70234
H         -0.98248       -0.45913       -1.50139
H         -2.01463       -1.72762       -0.82044
H         -0.86341        0.66531        0.73081
H         -1.88175       -0.61685        1.43618
