19
molCl467_clust-6
C         -3.68422       -0.17984        0.27967
C         -2.21139       -0.33877       -0.03044
O         -1.63485       -1.38512        0.14164
C         -1.50507        0.89379       -0.57336
C          0.00950        0.76706       -0.67383
C          0.70815        0.72169        0.68300
C          2.22399        0.72971        0.60366
Cl         2.88221       -0.71710       -0.24299
H         -4.20977        0.34620       -0.53127
H         -3.79619        0.43182        1.18943
H         -4.13751       -1.16354        0.45238
H         -1.80111        1.76552        0.03759
H         -1.94122        1.08345       -1.57062
H          0.25955       -0.14626       -1.23402
H          0.39943        1.61792       -1.25747
H          0.41746        1.60447        1.28146
H          0.37773       -0.16867        1.23950
H          2.67294        0.73264        1.60521
H          2.59416        1.60637        0.05327
