26
molCl3001_conf-3
C         -4.65206       -1.89774       -0.18705
C         -3.40922       -1.05755       -0.06564
C         -2.39069       -1.39968        0.83021
C         -1.25277       -0.60700        0.96544
C         -1.12931        0.54025        0.18571
S          0.34468        1.53548        0.29956
O         -0.00245        2.89677       -0.05968
O          0.99438        1.19157        1.55317
N          1.34046        1.00062       -0.91039
C          1.94272       -0.31922       -0.86782
C          3.26133       -0.30042       -0.10604
Cl         3.98519       -1.94111       -0.09221
C         -2.13447        0.91204       -0.70796
C         -3.26306        0.11059       -0.82857
H         -5.48183       -1.44294        0.37735
H         -4.97638       -1.98334       -1.23425
H         -4.49577       -2.91031        0.20942
H         -2.48953       -2.30058        1.44068
H         -0.46993       -0.86159        1.68200
H          1.13026        1.41531       -1.81106
H          1.26212       -1.06007       -0.41197
H          2.11558       -0.65068       -1.90159
H          3.97758        0.38203       -0.58113
H          3.09909        0.01233        0.93226
H         -2.03369        1.83202       -1.28713
H         -4.05419        0.40026       -1.52490
