38
molCl921_clust-24
C          6.01825       -2.25315        0.62200
C          5.11806       -1.53440       -0.37675
C          4.10736       -0.59921        0.28260
C          3.20102        0.12340       -0.70952
C          2.19211        1.05885       -0.04948
C          1.27645        1.76432       -1.04674
C          0.32186        2.78516       -0.42228
C         -0.60850        2.23906        0.66359
C         -1.48864        1.07474        0.21537
C         -2.48771        0.63663        1.28537
C         -3.28844       -0.62147        0.94198
C         -4.18414       -0.44555       -0.27228
Cl        -5.17682       -1.91320       -0.58205
H          6.73419       -2.91817        0.11642
H          6.59700       -1.53479        1.22423
H          5.42698       -2.86722        1.31984
H          4.57728       -2.27700       -0.98899
H          5.73759       -0.95602       -1.08413
H          3.48593       -1.17606        0.99144
H          4.64607        0.14663        0.89479
H          2.66008       -0.62239       -1.31960
H          3.82202        0.69819       -1.41994
H          1.58734        0.47917        0.67002
H          2.73038        1.81462        0.55108
H          1.89656        2.28001       -1.79982
H          0.70213        1.00663       -1.60842
H          0.91307        3.61289        0.00576
H         -0.28949        3.23333       -1.22459
H         -1.25477        3.06027        1.01835
H         -0.01849        1.92708        1.54307
H         -2.01979        1.36543       -0.70839
H         -0.85794        0.21026       -0.05737
H         -1.94180        0.44967        2.22536
H         -3.18156        1.46847        1.50274
H         -3.91670       -0.90526        1.80071
H         -2.60376       -1.46674        0.76133
H         -4.88524        0.38955       -0.13380
H         -3.60738       -0.26436       -1.18843
