23
molCl3004_conf-1
C         -2.60811       -1.29443       -1.12008
Si        -1.67425       -0.09213       -0.01328
C         -2.44250        1.62436       -0.14608
C         -1.75281       -0.67792        1.77545
C          0.12964       -0.02926       -0.57852
C          1.02917        0.92229        0.21094
C          2.48340        0.93285       -0.23187
Cl         3.29213       -0.65538        0.03483
H         -3.66641       -1.36835       -0.82313
H         -2.57655       -0.97266       -2.17323
H         -2.17194       -2.30447       -1.06408
H         -1.93007        2.34687        0.50906
H         -2.38743        2.00664       -1.17805
H         -3.50414        1.60577        0.14784
H         -2.79641       -0.76032        2.11871
H         -1.28200       -1.66749        1.88866
H         -1.23450        0.01990        2.45210
H          0.14971        0.24094       -1.65031
H          0.54093       -1.05204       -0.51754
H          0.66294        1.95990        0.11382
H          0.99409        0.68371        1.28716
H          2.57389        1.15187       -1.30499
H          3.06835        1.67367        0.32884
