19
molCl425_conf-3
Cl         3.38222       -0.56607       -0.59549
C          2.71880        0.55747        0.63143
C          1.29289        0.95424        0.33206
O          0.47262       -0.16994        0.48070
C         -0.84917       -0.06883        0.21137
C         -1.48711        1.11506       -0.17228
C         -2.86243        1.10585       -0.42147
C         -3.60520       -0.06230       -0.29268
C         -2.95939       -1.24135        0.09168
C         -1.59417       -1.24911        0.34203
H          2.77883        0.05504        1.60548
H          3.35985        1.44822        0.64483
H          0.99773        1.75196        1.04157
H          1.22320        1.36582       -0.69114
H         -0.93228        2.04715       -0.28078
H         -3.35223        2.03517       -0.72116
H         -4.67870       -0.05925       -0.48972
H         -3.52859       -2.16780        0.19597
H         -1.07185       -2.15978        0.63974
