29
molCl542_conf-2
C          3.69024        0.23458       -1.09734
C          3.01293       -0.54425        0.02956
C          3.50903       -0.10371        1.40606
C          3.21071       -2.04497       -0.15896
O          1.57350       -0.38958       -0.05331
C          0.98259        0.80706        0.07307
O          1.53087        1.87340        0.24535
N         -0.36364        0.66413       -0.01593
C         -1.21029       -0.42717       -0.46841
C         -2.38246        0.58526       -0.54904
C         -3.48585        0.38269        0.46371
Cl        -4.42844       -1.10607        0.11159
C         -1.36628        1.69848       -0.16715
H          3.28062       -0.07275       -2.07138
H          3.54006        1.31391       -0.97257
H          4.76970        0.02256       -1.09692
H          3.35776        0.97300        1.55104
H          2.97160       -0.64919        2.19626
H          4.58161       -0.32849        1.50209
H          2.68703       -2.60441        0.62965
H          4.28033       -2.29606       -0.11594
H          2.81426       -2.36651       -1.13298
H         -1.34102       -1.24298        0.26064
H         -0.90196       -0.86207       -1.43230
H         -2.80858        0.69393       -1.55547
H         -4.19284        1.22323        0.45956
H         -3.07537        0.27215        1.47751
H         -1.14342        2.42262       -0.96751
H         -1.58953        2.25708        0.75744
