15
molCl309_clust-5
Cl        -3.25998       -0.12832       -0.00001
C         -1.65397        0.67256       -0.00001
C         -0.52498       -0.34285        0.00004
C          0.84576        0.32979        0.00003
C          1.98328       -0.69879        0.00001
C          3.30918       -0.07934       -0.00012
N          4.34744        0.42761        0.00004
H         -1.61612        1.31515        0.89035
H         -1.61609        1.31511       -0.89040
H         -0.62734       -0.99382        0.88362
H         -0.62733       -0.99387       -0.88351
H          0.94835        0.98165        0.88274
H          0.94834        0.98164       -0.88270
H          1.91108       -1.35296        0.88357
H          1.91100       -1.35302       -0.88348
