23
molCl3004_conf-8
C          1.03484       -0.74139        1.73689
Si         1.30303       -0.08866       -0.00731
C          3.09727        0.47227       -0.18194
C          0.99225       -1.41762       -1.30311
C          0.24681        1.46884       -0.30427
C         -1.17057        1.61299        0.26427
C         -2.26643        0.79507       -0.39915
Cl        -2.29539       -0.93908        0.10055
H          1.23845        0.04195        2.48495
H          0.00018       -1.08827        1.87597
H          1.71023       -1.58641        1.94556
H          3.36130        1.22105        0.58210
H          3.78870       -0.37836       -0.07079
H          3.28003        0.92222       -1.17129
H         -0.05006       -1.76633       -1.28840
H          1.21396       -1.03177       -2.31141
H          1.64737       -2.28627       -1.12820
H          0.85288        2.29062        0.11706
H          0.22826        1.66309       -1.39274
H         -1.18249        1.41059        1.34798
H         -1.48676        2.66567        0.15449
H         -3.25719        1.18557       -0.13455
H         -2.17054        0.80129       -1.49392
