18
molCl267_conf-5
Cl        -2.65886       -0.64374       -0.58768
C         -2.13255        0.49007        0.70748
C         -0.90479        1.29286        0.32510
C          0.40394        0.54536        0.16603
C          1.51964        1.25039       -0.30528
C          2.75857        0.63161       -0.44105
C          2.90652       -0.71543       -0.10891
C          1.80487       -1.42904        0.35442
C          0.56396       -0.80467        0.49069
H         -2.98125        1.16009        0.89284
H         -1.96678       -0.11037        1.61211
H         -1.11957        1.84776       -0.60248
H         -0.77295        2.05847        1.11068
H          1.41225        2.30646       -0.56965
H          3.61345        1.20279       -0.81010
H          3.87615       -1.20629       -0.21633
H          1.90533       -2.48640        0.60946
H         -0.28700       -1.39581        0.83313
