17
molCl480_clust-2
C          3.62022       -0.38679       -0.67884
C          2.35352       -0.23918        0.11746
O          2.01083       -0.94634        1.02686
O          1.62830        0.80463       -0.32025
C          0.38943        1.05370        0.33231
C         -0.72388        0.18749       -0.24244
C         -2.05573        0.49274        0.41876
Cl        -3.37847       -0.50427       -0.27219
H          4.19280        0.55061       -0.65069
H          3.37191       -0.58830       -1.73069
H          4.21627       -1.20991       -0.27084
H          0.18411        2.12104        0.16748
H          0.50126        0.87374        1.41250
H         -0.47448       -0.87256       -0.08697
H         -0.79918        0.35962       -1.32720
H         -2.34593        1.54379        0.28109
H         -2.02720        0.28043        1.49631
