35
molCl3000_conf-12
C          4.06181       -0.40694       -0.46364
C          3.05772        0.55603        0.16800
C          3.51095        0.96206        1.56717
O          1.80201       -0.12479        0.41740
C          1.06039       -0.63192       -0.57973
N         -0.08953       -1.18109       -0.08864
C         -1.04139       -1.78989       -1.00001
C         -2.39156       -1.06359       -0.95020
C         -2.71268       -0.54134        0.47041
C         -1.93380       -1.35760        1.51231
C         -0.41895       -1.21191        1.32983
C         -2.39987        0.94486        0.63289
Cl        -3.47346        1.97790       -0.37414
O          1.35740       -0.60705       -1.75527
C          2.82420        1.79137       -0.70045
H          4.17393       -1.30401        0.16371
H          5.04399        0.08232       -0.54186
H          3.73513       -0.71171       -1.46509
H          4.47376        1.49057        1.51668
H          3.63146        0.07484        2.20559
H          2.77127        1.62835        2.03470
H         -1.16366       -2.85375       -0.73055
H         -0.60685       -1.75761       -2.00517
H         -2.39527       -0.22043       -1.65662
H         -3.17982       -1.75292       -1.28842
H         -3.78869       -0.66288        0.66832
H         -2.20304       -1.05254        2.53532
H         -2.23208       -2.41387        1.41974
H         -0.06619       -0.28062        1.79261
H          0.11000       -2.03539        1.84289
H         -2.54619        1.26617        1.67327
H         -1.37037        1.18069        0.33098
H          2.06136        2.43955       -0.24296
H          3.75783        2.36734       -0.78227
H          2.49269        1.50719       -1.70639
