38
molCl921_clust-27
C         -6.19799        0.89135       -0.46419
C         -4.71551        0.54435       -0.54843
C         -4.42046       -0.91216       -0.19145
C         -2.95823       -1.32925       -0.35284
C         -1.98164       -0.60975        0.57536
C         -0.54367       -1.10187        0.43002
C          0.45020       -0.46297        1.40267
C          0.55264        1.06395        1.32488
C          0.88938        1.62042       -0.06314
C          2.13614        1.02056       -0.71586
C          3.42125        1.22595        0.08180
C          4.63119        0.52117       -0.50369
Cl         4.46764       -1.27414       -0.42899
H         -6.38312        1.94481       -0.72219
H         -6.79258        0.26884       -1.15170
H         -6.58747        0.72303        0.55254
H         -4.14856        1.21531        0.11830
H         -4.34416        0.74718       -1.56860
H         -4.74144       -1.10205        0.84906
H         -5.04827       -1.56447       -0.82302
H         -2.64651       -1.16680       -1.40070
H         -2.87641       -2.41629       -0.18074
H         -2.02044        0.47482        0.37947
H         -2.30988       -0.74002        1.62311
H         -0.52169       -2.19559        0.57442
H         -0.21065       -0.93692       -0.60994
H          0.17119       -0.74079        2.43366
H          1.44535       -0.90796        1.23254
H          1.30814        1.40067        2.05449
H         -0.39379        1.51851        1.66185
H          0.03273        1.45886       -0.73896
H          1.00537        2.71547        0.01327
H          1.98952       -0.05942       -0.87786
H          2.26484        1.46028       -1.71981
H          3.29302        0.88493        1.12151
H          3.65896        2.30340        0.13591
H          4.77902        0.77604       -1.56241
H          5.54725        0.76800        0.04781
