20
molCl995_clust-2
C         -4.02489        0.93487        0.15714
C         -2.92809        0.10598       -0.46934
O         -1.81028        0.10776        0.41951
C         -0.72799       -0.56854        0.03092
O         -0.66166       -1.16890       -1.01212
C          0.37194       -0.48569        1.06373
C          1.66752       -1.15739        0.62859
C          2.37468       -0.47790       -0.53208
Cl         2.87112        1.21016       -0.13340
H         -4.90313        0.95478       -0.50383
H         -4.32988        0.51397        1.12597
H         -3.68969        1.96926        0.31944
H         -3.24751       -0.93368       -0.64317
H         -2.61228        0.51206       -1.44311
H          0.53831        0.57616        1.30331
H         -0.01434       -0.94398        1.98801
H          2.35208       -1.21092        1.48880
H          1.45612       -2.19227        0.31412
H          1.72523       -0.42139       -1.41405
H          3.29259       -1.01546       -0.80059
