22
molCl431_clust-8
Cl         4.07810       -0.04636       -0.01687
C          2.66202        0.88684       -0.60054
C          1.39980        0.05980       -0.62920
O          1.02695       -0.26646        0.67717
C         -0.06795       -1.13409        0.76716
C         -1.38271       -0.50121        0.35587
C         -1.65352        0.82890        0.69576
C         -2.86773        1.41517        0.34723
C         -3.83077        0.67652       -0.34172
C         -3.56847       -0.64827       -0.68501
C         -2.34768       -1.23023       -0.34245
H          2.90069        1.24875       -1.60887
H          2.53895        1.74643        0.07109
H          1.56147       -0.85458       -1.23382
H          0.61225        0.65450       -1.13530
H         -0.12006       -1.44067        1.82363
H          0.10656       -2.05082        0.16972
H         -0.89417        1.40303        1.23238
H         -3.06643        2.45500        0.61682
H         -4.78367        1.13559       -0.61393
H         -4.31448       -1.23104       -1.22995
H         -2.14241       -2.26683       -0.62495
