35
molCl3000_conf-1
C         -3.41216       -1.86665       -0.96862
C         -3.15305       -0.75394        0.04272
C         -4.27503        0.28233        0.00051
O         -1.91226       -0.16964       -0.42732
C         -1.33406        0.86509        0.20092
N         -0.18262        1.24506       -0.42801
C          0.66105        2.24884        0.20345
C          2.14261        1.86871        0.06371
C          2.31033        0.34656        0.13865
C          1.60465       -0.31779       -1.06188
C          0.41787        0.53165       -1.54017
C          3.77863       -0.02817        0.24669
Cl         4.02196       -1.80328        0.41190
O         -1.76348        1.40590        1.19834
C         -2.96212       -1.33534        1.44290
H         -4.33969       -2.40080       -0.71710
H         -2.58220       -2.58820       -0.96886
H         -3.51192       -1.45142       -1.98210
H         -4.09080        1.08907        0.72006
H         -5.23302       -0.20087        0.24344
H         -4.35479        0.71501       -1.00811
H          0.47719        3.24693       -0.23238
H          0.37207        2.30226        1.26150
H          2.55340        2.23390       -0.89337
H          2.71601        2.37084        0.85809
H          1.81448        0.00712        1.06462
H          2.31548       -0.45137       -1.89471
H          1.26509       -1.32351       -0.77622
H         -0.34305       -0.08216       -2.03045
H          0.75443        1.27921       -2.27800
H          4.33653        0.28621       -0.64754
H          4.24268        0.43420        1.12816
H         -2.76622       -0.54079        2.17288
H         -3.86872       -1.88106        1.74362
H         -2.11846       -2.04196        1.44880
