19
molCl1233_conf-15
C          1.32997        2.15672       -0.09354
O          0.28350        1.30796       -0.48551
C          0.31061        0.00577       -0.00835
C          0.32815       -0.05857        1.51931
C         -0.91421       -0.67998       -0.62575
Cl        -2.47879       -0.10229        0.02241
O          1.44476       -0.60859       -0.59484
C          1.94413       -1.79455       -0.04759
H          1.27467        3.04550       -0.73503
H          1.23141        2.48330        0.95719
H          2.31285        1.67854       -0.23363
H          0.15866       -1.08195        1.88172
H          1.29031        0.29454        1.91599
H         -0.47590        0.57786        1.90989
H         -0.87189       -1.76249       -0.45107
H         -0.89771       -0.47823       -1.70304
H          2.40341       -1.64690        0.94579
H          1.17475       -2.58398        0.04297
H          2.72076       -2.15861       -0.73334
