22
molCl431_clust-4
Cl         3.22861        1.24410       -0.25976
C          3.26235       -0.37183        0.51868
C          2.18602       -1.28189       -0.02478
O          0.94123       -0.76721        0.32020
C         -0.15468       -1.39645       -0.27574
C         -1.38722       -0.54334       -0.10633
C         -1.26967        0.84459        0.00993
C         -2.40999        1.63768        0.12307
C         -3.67696        1.05479        0.11724
C         -3.79874       -0.32948        0.00296
C         -2.65825       -1.12381       -0.10362
H          3.12116       -0.21615        1.59595
H          4.25596       -0.80273        0.34098
H          2.33954       -2.29385        0.40670
H          2.29157       -1.37398       -1.12442
H         -0.32334       -2.40226        0.15938
H          0.03774       -1.54796       -1.35897
H         -0.27286        1.28906        0.01969
H         -2.30752        2.72123        0.21710
H         -4.56932        1.67834        0.20626
H         -4.78690       -0.79507        0.00484
H         -2.75943       -2.21025       -0.18172
