33
molCl608_clust-1
C          3.14880       -1.52530        0.49820
C          2.87976       -0.17973       -0.19384
C          3.02975       -0.35217       -1.71423
C          3.88314        0.86984        0.30895
Si         1.10639        0.37388        0.19323
C          0.70059        2.00048       -0.65016
C          0.79993        0.52155        2.04167
O          0.13208       -0.84864       -0.43138
C         -1.11804       -1.26793        0.02482
C         -2.22062       -0.24839       -0.25657
C         -3.59030       -0.77179        0.13213
Cl        -4.87468        0.45171       -0.15139
H          4.15987       -1.89209        0.24857
H          3.09338       -1.44174        1.59569
H          2.42445       -2.29073        0.17983
H          2.30219       -1.07756       -2.10966
H          4.04187       -0.71791       -1.96165
H          2.88519        0.59871       -2.25183
H          3.73514        1.84880       -0.17476
H          4.91663        0.55028        0.08803
H          3.81494        1.01900        1.39894
H          0.77715        1.90708       -1.74422
H          1.38630        2.79972       -0.32702
H         -0.32437        2.32480       -0.41296
H         -0.23394        0.83940        2.25103
H          0.97340       -0.43306        2.56208
H          1.46937        1.27480        2.48615
H         -1.35817       -2.21780       -0.48355
H         -1.09200       -1.49044        1.11046
H         -2.02109        0.68186        0.30011
H         -2.20651        0.00873       -1.32714
H         -3.86367       -1.66077       -0.45275
H         -3.63478       -1.03463        1.19829
