12
molCl1933_conf-1
N          2.04541       -0.95605        0.33645
C          1.30749        0.10905       -0.07071
O          1.47249        0.65897       -1.13838
C          0.27299        0.61579        0.93081
C         -1.04694        0.92006        0.25289
Cl        -1.88406       -0.59259       -0.24467
H          2.71932       -1.34178       -0.31270
H          1.81552       -1.48080        1.16700
H          0.12446       -0.07684        1.77281
H          0.67325        1.55736        1.34345
H         -1.73028        1.45937        0.91994
H         -0.87230        1.50784       -0.65707
