29
molCl542_conf-3
C         -3.69021       -0.23448       -1.09744
C         -3.01291        0.54423        0.02955
C         -3.50910        0.10356        1.40599
C         -3.21075        2.04498       -0.15881
O         -1.57352        0.38960       -0.05328
C         -0.98258       -0.80705        0.07305
O         -1.53084       -1.87339        0.24534
N          0.36365       -0.66408       -0.01591
C          1.21032        0.42719       -0.46841
C          2.38247       -0.58526       -0.54906
C          3.48585       -0.38269        0.46370
Cl         4.42846        1.10605        0.11160
C          1.36627       -1.69845       -0.16713
H         -3.28060        0.07298       -2.07145
H         -3.53998       -1.31383       -0.97281
H         -4.76968       -0.02253       -1.09698
H         -3.35791       -0.97318        1.55087
H         -2.97166        0.64890        2.19628
H         -4.58167        0.32841        1.50202
H         -2.68714        2.60436        0.62988
H         -4.28038        2.29602       -0.11583
H         -2.81425        2.36662       -1.13278
H          1.34104        1.24303        0.26060
H          0.90201        0.86204       -1.43233
H          2.80860       -0.69393       -1.55547
H          4.19281       -1.22325        0.45959
H          3.07533       -0.27214        1.47750
H          1.14338       -2.42257       -0.96750
H          1.58953       -2.25707        0.75744
