38
molCl921_clust-22
C         -6.43867       -0.94471        0.61583
C         -5.18164       -0.32586        0.01408
C         -3.98231       -1.27294        0.02897
C         -2.72425       -0.72622       -0.64662
C         -2.12234        0.50739        0.02345
C         -0.81163        0.96111       -0.61216
C         -0.22837        2.21981        0.03070
C          1.12752        2.66663       -0.53712
C          2.35847        2.13053        0.19858
C          2.49231        0.61051        0.24048
C          3.80311        0.14940        0.86989
C          3.96192       -1.35706        0.96416
Cl         4.02124       -2.14597       -0.65583
H         -7.28559       -0.24263        0.59608
H         -6.74077       -1.84922        0.06412
H         -6.27296       -1.23878        1.66458
H         -4.93481        0.59848        0.56261
H         -5.38230       -0.01553       -1.02664
H         -3.74701       -1.54245        1.07486
H         -4.27065       -2.21633       -0.46640
H         -2.94999       -0.49108       -1.70251
H         -1.96016       -1.52212       -0.67353
H         -2.84293        1.34307       -0.00588
H         -1.95328        0.29272        1.09470
H         -0.08275        0.13516       -0.56784
H         -0.97550        1.15337       -1.68764
H         -0.96212        3.03433       -0.09155
H         -0.13782        2.06865        1.12217
H          1.18347        3.76674       -0.51846
H          1.18639        2.38309       -1.60303
H          3.26152        2.55198       -0.27647
H          2.35451        2.51940        1.23323
H          1.65296        0.17435        0.80953
H          2.41940        0.20062       -0.78065
H          3.87975        0.54644        1.89810
H          4.65775        0.56749        0.31211
H          4.89508       -1.63014        1.47325
H          3.12197       -1.81756        1.50289
