26
molCl3001_conf-5
C          4.94989       -1.57556       -0.09265
C          3.63170       -0.85106       -0.03624
C          3.14438       -0.32156        1.16202
C          1.92699        0.35690        1.20779
C          1.19056        0.49896        0.03764
S         -0.36123        1.36287        0.08038
O         -0.46904        2.01322        1.37691
O         -0.52188        2.12186       -1.15018
N         -1.45041        0.09517       -0.02849
C         -2.73678        0.36961       -0.65255
C         -3.48296       -0.92391       -0.89599
Cl        -3.86609       -1.76503        0.65021
C          1.65463       -0.01038       -1.17593
C          2.86846       -0.68253       -1.20293
H          5.38879       -1.69616        0.90692
H          4.83166       -2.57525       -0.53737
H          5.67159       -1.02439       -0.71540
H          3.72742       -0.43601        2.07901
H          1.54926        0.78394        2.13827
H         -1.54328       -0.36813        0.87570
H         -3.36338        1.05529       -0.05442
H         -2.54796        0.85343       -1.62197
H         -4.43751       -0.73090       -1.40109
H         -2.88133       -1.61850       -1.49570
H          1.06760        0.13014       -2.08520
H          3.23918       -1.08348       -2.14980
