35
molCl3000_conf-7
C          3.98586        1.82837        0.40605
C          3.60253        0.35612        0.28862
C          4.32432       -0.29419       -0.89089
O          2.17622        0.40975        0.03648
C          1.44750       -0.70263       -0.15002
N          0.14412       -0.39164       -0.40435
C         -0.35404        0.97662       -0.44113
C         -1.62707        1.03949       -1.27704
C         -2.75679        0.14818       -0.71301
C         -2.16133       -1.05798        0.03783
C         -0.81727       -1.47887       -0.53897
C         -3.68333        0.97567        0.16714
Cl        -5.04373        0.00864        0.83637
O          1.87435       -1.83717       -0.09913
C          3.87737       -0.37589        1.60151
H          3.75611        2.36297       -0.52724
H          5.06209        1.92636        0.60872
H          3.43031        2.30668        1.22576
H          4.04692       -1.35096       -0.98584
H          5.41211       -0.22253       -0.74322
H          4.07011        0.22706       -1.82618
H         -0.54550        1.35307        0.58184
H          0.41649        1.62658       -0.87313
H         -1.95744        2.08731       -1.35548
H         -1.38279        0.71759       -2.30105
H         -3.35557       -0.22403       -1.56023
H         -2.01750       -0.80077        1.10120
H         -2.86158       -1.90428        0.01856
H         -0.92973       -1.77310       -1.59920
H         -0.41453       -2.35248       -0.01158
H         -3.14158        1.39826        1.02654
H         -4.13603        1.79993       -0.39989
H          3.59381       -1.43254        1.52720
H          4.94823       -0.30974        1.84471
H          3.30966        0.08920        2.42146
