12
molCl1933_conf-3
N         -2.61116       -0.81826        0.00034
C         -1.59478        0.08591       -0.00034
O         -1.78280        1.28434       -0.00015
C         -0.19822       -0.52290       -0.00047
C          0.86911        0.55361        0.00042
Cl         2.51067       -0.17647        0.00001
H         -2.45025       -1.81446        0.00048
H         -3.56160       -0.47232        0.00061
H         -0.08257       -1.17220       -0.88388
H         -0.08277       -1.17351        0.88201
H          0.78983        1.19230        0.88784
H          0.78993        1.19360       -0.88606
