38
molCl921_clust-6
C         -4.96230        2.38709        0.70234
C         -4.72177        1.22975       -0.26044
C         -3.62947        0.27039        0.20646
C         -3.37921       -0.88297       -0.76302
C         -2.36287       -1.91730       -0.27812
C         -0.94849       -1.37626       -0.07789
C          0.06216       -2.46038        0.29279
C          1.46101       -1.93519        0.61730
C          2.16869       -1.26307       -0.55866
C          3.60593       -0.82656       -0.27027
C          3.76781        0.16706        0.88334
C          2.88827        1.40295        0.80664
Cl         3.14803        2.34515       -0.70824
H         -5.75443        3.05853        0.33879
H         -5.26465        2.02092        1.69647
H         -4.04947        2.98920        0.83620
H         -4.45257        1.62565       -1.25517
H         -5.66051        0.66704       -0.40524
H         -2.69734        0.84118        0.36143
H         -3.90131       -0.13898        1.19684
H         -3.04752       -0.47390       -1.73452
H         -4.33751       -1.39272       -0.96278
H         -2.71843       -2.36333        0.66842
H         -2.32420       -2.74657       -1.00538
H         -0.63020       -0.86226       -1.00157
H         -0.94868       -0.60593        0.71359
H         -0.32084       -3.01871        1.16434
H          0.12798       -3.19434       -0.53057
H          2.08649       -2.77010        0.97865
H          1.38350       -1.23006        1.46440
H          2.17950       -1.96141       -1.41301
H          1.59038       -0.38913       -0.90311
H          4.22384       -1.71313       -0.04841
H          4.02772       -0.37607       -1.18251
H          4.82217        0.47990        0.94731
H          3.53467       -0.32244        1.84521
H          1.82013        1.14756        0.82991
H          3.09629        2.08863        1.63794
