17
molCl500_conf-1
C          1.16172       -0.30079        1.25697
C          0.65769        0.41768        0.00000
C          1.16172        1.86971        0.00000
C          1.16172       -0.30079       -1.25697
C         -0.87552        0.49138        0.00000
Cl        -1.69295       -1.11355        0.00000
H          2.26223       -0.32369        1.27196
H          0.82169        0.21185        2.17099
H          0.79620       -1.33709        1.29319
H          0.81586        2.41637       -0.89161
H          2.26221        1.89172        0.00000
H          0.81586        2.41637        0.89161
H          2.26223       -0.32369       -1.27196
H          0.79620       -1.33709       -1.29319
H          0.82169        0.21185       -2.17099
H         -1.23898        1.02029        0.89222
H         -1.23898        1.02029       -0.89222
