21
molCl3002_conf-7
C          2.71178       -1.53715       -0.94718
O          1.44963       -0.90666       -0.79520
C          0.83729       -1.10260        0.37004
O          1.20030       -1.87763        1.21042
C         -0.47004       -0.31171        0.47342
C         -1.54853       -1.13418       -0.22253
Cl        -3.15567       -0.33451       -0.14525
N         -0.37735        0.99974       -0.11115
C          0.64116        1.84082        0.22963
C          0.59956        3.21258       -0.40561
O          1.54223        1.48118        0.96165
H          3.41775       -1.15308       -0.19732
H          2.62409       -2.62659       -0.82932
H          3.05986       -1.28909       -1.95577
H         -0.68759       -0.25993        1.55313
H         -1.30558       -1.27039       -1.28470
H         -1.64261       -2.11326        0.26193
H         -1.19001        1.35158       -0.60132
H          0.99568        3.94361        0.30970
H          1.25961        3.21059       -1.28589
H         -0.40796        3.51317       -0.72466
