33
molCl608_clust-2
C         -1.53261       -1.99179       -0.64812
C         -2.22793       -0.66815       -0.29140
C         -3.33305       -0.92827        0.74438
C         -2.84291       -0.05982       -1.56183
Si        -0.94604        0.53339        0.42452
C         -0.14969       -0.13451        1.98604
C         -1.67528        2.22962        0.76596
O          0.21223        0.66050       -0.79034
C          1.40326        1.39451       -0.72182
C          2.51660        0.62890       -1.42140
C          2.76925       -0.74708       -0.83584
Cl         3.37316       -0.66752        0.86305
H         -2.25926       -2.70736       -1.07163
H         -0.73938       -1.83663       -1.39561
H         -1.07801       -2.46979        0.23465
H         -2.93760       -1.39129        1.66279
H         -4.09227       -1.61608        0.33251
H         -3.85564       -0.00159        1.03269
H         -3.39539        0.86878       -1.34625
H         -3.55634       -0.76660       -2.02116
H         -2.06941        0.17328       -2.30981
H          0.35380       -1.09612        1.80560
H         -0.90096       -0.27791        2.77884
H          0.61134        0.56151        2.37189
H         -0.90023        2.91198        1.15028
H         -2.09617        2.67751       -0.14715
H         -2.47416        2.17867        1.52260
H          1.27416        2.37714       -1.21077
H          1.70447        1.58862        0.32530
H          2.23514        0.48613       -2.47854
H          3.44312        1.22471       -1.40527
H          1.84204       -1.33371       -0.81142
H          3.52797       -1.29543       -1.40770
