21
molCl3002_conf-10
C          2.33728        2.38313       -0.48690
O          1.27449        1.44303       -0.56494
C          1.02371        0.73396        0.54674
O          1.61740        0.87505        1.57617
C         -0.11465       -0.24665        0.30066
C          0.26823       -1.33418       -0.70746
Cl         1.74126       -2.21840       -0.20596
N         -1.27647        0.47576       -0.16958
C         -2.54488        0.03358        0.09452
C         -3.66063        0.89777       -0.45298
O         -2.75288       -0.96779        0.74678
H          2.13771        3.13248        0.29215
H          3.28272        1.87442       -0.25221
H          2.39787        2.86185       -1.47023
H         -0.36198       -0.71522        1.26178
H         -0.55414       -2.05674       -0.77974
H          0.46447       -0.89144       -1.69268
H         -1.12213        1.25645       -0.79460
H         -4.43363        0.24477       -0.87770
H         -4.11596        1.44938        0.38255
H         -3.32762        1.61845       -1.21234
