33
molCl608_clust-7
C         -1.45547        1.69870       -1.42200
C         -1.53995        1.18315        0.02352
C         -2.87961        1.62650        0.63867
C         -0.39433        1.78631        0.85404
Si        -1.48166       -0.72505        0.03332
C         -2.99314       -1.45740       -0.79112
C         -1.36976       -1.37534        1.79485
O         -0.20117       -1.30774       -0.88406
C          1.13183       -0.90649       -0.97428
C          1.92447       -1.17668        0.30120
C          3.39101       -0.80620        0.19966
Cl         3.63394        0.97056       -0.00323
H         -2.27234        1.30421       -2.04708
H         -1.52847        2.80039       -1.44255
H         -0.50602        1.42196       -1.90517
H         -3.74214        1.26386        0.05746
H         -2.94173        2.72868        0.66441
H         -2.99769        1.27033        1.67514
H         -0.47086        2.88804        0.86338
H          0.60166        1.53968        0.45508
H         -0.42761        1.45141        1.90324
H         -3.90687       -1.26320       -0.20865
H         -2.87292       -2.54808       -0.88137
H         -3.13623       -1.05252       -1.80443
H         -2.27776       -1.11805        2.36336
H         -1.28237       -2.47323        1.78341
H         -0.50600       -0.97448        2.34602
H          1.21465        0.16442       -1.23364
H          1.59360       -1.46518       -1.80735
H          1.47480       -0.63334        1.14768
H          1.85749       -2.25154        0.54006
H          3.87426       -1.28616       -0.66282
H          3.93782       -1.08939        1.10744
