29
molCl542_conf-10
C         -3.21006        1.12281        1.39429
C         -2.75980        0.38088        0.13966
C         -2.70044        1.33147       -1.05548
C         -3.66511       -0.82022       -0.13014
O         -1.42578       -0.06829        0.48489
C         -0.67159       -0.76886       -0.37430
O         -0.98007       -1.11591       -1.49247
N          0.52750       -1.05671        0.19704
C          1.73548       -1.47451       -0.49288
C          2.55321       -0.92061        0.70334
C          3.62281        0.11247        0.41589
Cl         3.01769        1.50481       -0.55007
C          1.21555       -0.43054        1.31560
H         -3.20989        0.44713        2.26188
H         -2.53298        1.96239        1.60883
H         -4.22683        1.51866        1.25815
H         -2.00349        2.15769       -0.84925
H         -2.36918        0.80505       -1.95886
H         -3.69729        1.75962       -1.23780
H         -3.33741       -1.36414       -1.02444
H         -4.69963       -0.47751       -0.28053
H         -3.65178       -1.50687        0.72961
H          1.89704       -0.94720       -1.44708
H          1.81004       -2.55953       -0.66327
H          3.02114       -1.71923        1.29898
H          4.45035       -0.32950       -0.15529
H          4.02607        0.52939        1.34865
H          0.95693       -0.84940        2.30037
H          1.10016        0.66477        1.34666
