35
molCl3000_conf-13
C         -3.51089        0.96203        1.56719
C         -3.05767        0.55604        0.16800
C         -4.06176       -0.40692       -0.46366
O         -1.80196       -0.12481        0.41739
C         -1.06036       -0.63194       -0.57974
N          0.08954       -1.18115       -0.08866
C          0.41894       -1.21203        1.32981
C          1.93381       -1.35761        1.51231
C          2.71264       -0.54130        0.47041
C          2.39159       -1.06359       -0.95019
C          1.04143       -1.78991       -1.00003
C          2.39976        0.94489        0.63289
Cl         3.47332        1.97798       -0.37412
O         -1.35736       -0.60704       -1.75529
C         -2.82413        1.79139       -0.70042
H         -3.63141        0.07480        2.20558
H         -4.47369        1.49056        1.51671
H         -2.77120        1.62830        2.03473
H         -3.73508       -0.71167       -1.46512
H         -5.04394        0.08235       -0.54187
H         -4.17389       -1.30400        0.16368
H          0.06610       -0.28078        1.79262
H         -0.10996       -2.03557        1.84282
H          2.20300       -1.05254        2.53532
H          2.23215       -2.41387        1.41975
H          3.78866       -0.66278        0.66833
H          2.39531       -0.22043       -1.65663
H          3.17987       -1.75291       -1.28837
H          1.16371       -2.85378       -0.73060
H          0.60689       -1.75761       -2.00520
H          1.37026        1.18066        0.33096
H          2.54605        1.26620        1.67327
H         -2.49261        1.50723       -1.70636
H         -3.75775        2.36738       -0.78222
H         -2.06128        2.43955       -0.24290
