38
molCl921_clust-5
C          5.61903        0.82450        0.12450
C          4.32893        0.09370        0.48075
C          3.11879        0.59894       -0.30384
C          1.78539       -0.03973        0.08529
C          1.69879       -1.54511       -0.17204
C          0.31717       -2.13826        0.11259
C         -0.74870       -1.74942       -0.91152
C         -2.15738       -2.24917       -0.58308
C         -2.73134       -1.74359        0.74814
C         -2.60870       -0.23515        0.97153
C         -3.30839        0.61554       -0.08539
C         -3.05472        2.10535        0.05318
Cl        -1.32907        2.53267       -0.26212
H          6.47502        0.44114        0.69989
H          5.85715        0.70983       -0.94509
H          5.53457        1.90383        0.32877
H          4.12764        0.20133        1.56137
H          4.46444       -0.98660        0.30483
H          3.04025        1.69164       -0.16881
H          3.29642        0.44198       -1.38355
H          0.97924        0.47746       -0.45934
H          1.58835        0.15144        1.15609
H          1.97951       -1.75436       -1.22071
H          2.44422       -2.06608        0.45080
H          0.38677       -3.23911        0.15023
H          0.00350       -1.82202        1.12290
H         -0.77021       -0.65284       -1.02781
H         -0.45194       -2.14455       -1.89813
H         -2.16209       -3.35259       -0.56838
H         -2.83180       -1.96331       -1.40788
H         -3.79203       -2.04206        0.81187
H         -2.22871       -2.25712        1.58413
H         -1.54404        0.04798        1.00693
H         -3.01964        0.01810        1.96381
H         -4.40037        0.45926       -0.02756
H         -3.00609        0.30605       -1.09860
H         -3.28196        2.46550        1.06622
H         -3.64710        2.68410       -0.66677
