19
molCl425_conf-10
Cl        -3.99287        0.37030        0.00003
C         -2.55901       -0.69945       -0.00012
C         -1.29133        0.13265       -0.00001
O         -0.21969       -0.77254       -0.00004
C          1.04953       -0.30033        0.00008
C          2.06561       -1.26557        0.00009
C          3.39731       -0.87294       -0.00001
C          3.73852        0.48262       -0.00006
C          2.72653        1.43638       -0.00006
C          1.38128        1.05799        0.00009
H         -2.60639       -1.33509        0.89295
H         -2.60641       -1.33487       -0.89335
H         -1.26757        0.78226       -0.89358
H         -1.26769        0.78212        0.89366
H          1.78066       -2.31900        0.00013
H          4.18050       -1.63440       -0.00001
H          4.78614        0.78872       -0.00011
H          2.97708        2.49962       -0.00009
H          0.60933        1.82777        0.00015
