35
molCl3000_conf-2
C         -3.98234       -1.71924       -0.06157
C         -3.45264       -0.35078        0.35686
C         -4.32921        0.76207       -0.21586
O         -2.13535       -0.31292       -0.24691
C         -1.32932        0.75375       -0.12036
N         -0.15147        0.57106       -0.78423
C          0.87741        1.59781       -0.66968
C          2.27050        0.97118       -0.77708
C          2.30022       -0.37946       -0.06088
C          1.35027       -1.37413       -0.76581
C          0.21904       -0.63620       -1.49636
C          3.69121       -0.98407        0.04420
Cl         4.80333       -0.00014        1.05929
O         -1.59452        1.76007        0.50266
C         -3.33716       -0.26301        1.87806
H         -4.02973       -1.79621       -1.15765
H         -4.99235       -1.87637        0.34353
H         -3.32679       -2.51804        0.31499
H         -4.35524        0.69794       -1.31411
H         -3.94844        1.74878        0.07394
H         -5.35764        0.65189        0.15888
H          0.74133        2.37832       -1.43929
H          0.75037        2.08890        0.30508
H          2.56111        0.83018       -1.83281
H          3.00963        1.65617       -0.33839
H          1.93262       -0.21650        0.96657
H          1.90595       -1.98466       -1.49821
H          0.93164       -2.07145       -0.02395
H         -0.66400       -1.27177       -1.60794
H          0.54522       -0.35462       -2.51206
H          3.65025       -1.98204        0.50148
H          4.16082       -1.07384       -0.94623
H         -4.32713       -0.41383        2.33351
H         -2.66354       -1.04803        2.25369
H         -2.94940        0.71551        2.18555
