38
molCl921_clust-25
C          4.34531        2.49255       -0.31254
C          4.02266        1.10858        0.24018
C          3.14231        0.28283       -0.69596
C          2.89566       -1.15926       -0.24422
C          2.26156       -1.32061        1.14354
C          0.88212       -0.67780        1.35589
C         -0.32507       -1.55672        1.01012
C         -0.47778       -1.98378       -0.45257
C         -0.56669       -0.83652       -1.46535
C         -1.60618        0.23691       -1.13902
C         -3.03882       -0.28306       -1.05364
C         -4.04711        0.75479       -0.59587
Cl        -3.76748        1.25883        1.11400
H          4.88473        2.42358       -1.27067
H          3.42522        3.07104       -0.49329
H          4.97147        3.07104        0.38299
H          3.52515        1.21737        1.21849
H          4.95977        0.55817        0.43688
H          2.18083        0.80865       -0.83495
H          3.60838        0.25814       -1.69634
H          3.86154       -1.69386       -0.24094
H          2.28010       -1.66600       -1.00436
H          2.19293       -2.39758        1.37677
H          2.96164       -0.90953        1.88917
H          0.78647       -0.40512        2.41913
H          0.82130        0.27940        0.81029
H         -0.28151       -2.46758        1.63202
H         -1.23906       -1.02644        1.32836
H         -1.37925       -2.61488       -0.53174
H          0.35767       -2.64366       -0.73927
H          0.41626       -0.34694       -1.55291
H         -0.77648       -1.26111       -2.46246
H         -1.34882        0.72636       -0.18583
H         -1.55899        1.02915       -1.90578
H         -3.09983       -1.14750       -0.37337
H         -3.36322       -0.64601       -2.04524
H         -5.07249        0.36591       -0.63613
H         -3.99433        1.66990       -1.20210
