33
molCl608_clust-10
C          2.74416       -1.33548       -1.38459
C          2.72714       -0.57985       -0.04572
C          3.99618        0.27710        0.08103
C          2.67028       -1.59342        1.10813
Si         1.18245        0.52038        0.02133
C          1.17124        1.76091       -1.38884
C          1.03208        1.42662        1.66165
O         -0.10950       -0.54065       -0.14656
C         -1.39825       -0.43120        0.38164
C         -2.24004        0.61348       -0.34541
C         -3.66476        0.72628        0.16319
Cl        -4.61825       -0.77856       -0.10817
H          3.60977       -2.01967       -1.42898
H          1.83127       -1.93612       -1.51792
H          2.82557       -0.64904       -2.24271
H          4.08481        1.00943       -0.73762
H          4.89620       -0.36148        0.04536
H          4.02823        0.83104        1.03344
H          2.69786       -1.09814        2.09227
H          3.53469       -2.27887        1.06243
H          1.75424       -2.20205        1.06100
H          0.29234        2.42158       -1.32991
H          1.13986        1.24840       -2.36248
H          2.06881        2.39915       -1.36781
H          0.12949        2.05789        1.68863
H          0.98118        0.72737        2.51055
H          1.89838        2.08809        1.82015
H         -1.88682       -1.41380        0.29172
H         -1.36922       -0.18697        1.46271
H         -1.77450        1.60786       -0.22537
H         -2.23906        0.38981       -1.42392
H         -3.69393        0.92277        1.24434
H         -4.20543        1.53155       -0.34953
