29
molCl542_conf-6
C          3.72721        1.64176        0.10562
C          3.18273        0.21678        0.10251
C          3.52194       -0.49267        1.41268
C          3.69635       -0.55372       -1.11318
O          1.74968        0.41263       -0.00122
C          0.89578       -0.62205       -0.02688
O          1.18040       -1.79815        0.01485
N         -0.37770       -0.16056       -0.10379
C         -1.59377       -0.90072       -0.38582
C         -2.30280        0.45725       -0.63192
C         -3.34925        0.83965        0.38948
Cl        -4.80068       -0.21086        0.26027
C         -0.92544        1.14527       -0.41840
H          3.44590        2.16389       -0.82046
H          3.32314        2.20646        0.95832
H          4.82406        1.62981        0.18139
H          3.10050        0.06114        2.26505
H          3.12196       -1.51396        1.41944
H          4.61400       -0.53670        1.53769
H          4.79509       -0.60032       -1.08468
H          3.39859       -0.04230       -2.04098
H          3.29777       -1.57553       -1.12639
H         -1.98195       -1.48923        0.46095
H         -1.51944       -1.55853       -1.26626
H         -2.70666        0.57091       -1.64698
H         -3.68515        1.87619        0.25037
H         -2.96088        0.72891        1.41201
H         -0.49308        1.60898       -1.31977
H         -0.87548        1.87367        0.40864
