15
molCl309_clust-3
Cl         2.65974        0.39120       -0.12290
C          0.91449        0.25204        0.28199
C          0.39473       -1.13885       -0.04971
C         -1.05151       -1.40190        0.37753
C         -2.12987       -0.64164       -0.41137
C         -2.21540        0.78714       -0.10120
N         -2.27745        1.91147        0.15916
H          0.40048        1.04332       -0.27697
H          0.81312        0.47284        1.35348
H          0.50467       -1.31679       -1.13225
H          1.04362       -1.87417        0.45081
H         -1.17532       -1.19845        1.45378
H         -1.25455       -2.47504        0.24280
H         -3.12031       -1.07587       -0.20482
H         -1.95982       -0.74735       -1.49505
