20
molCl995_clust-1
C          3.49127        0.83183       -0.56997
C          2.50747        0.14583        0.34874
O          1.42560       -0.33791       -0.44604
C          0.43017       -0.93989        0.20610
O          0.43221       -1.13736        1.39300
C         -0.67313       -1.38805       -0.72944
C         -2.06780       -1.09696       -0.17554
C         -2.56882        0.31305       -0.43451
Cl        -1.51510        1.58637        0.28097
H          4.33887        1.22181        0.01159
H          3.88082        0.13106       -1.32249
H          3.01375        1.67231       -1.09370
H          2.96651       -0.69821        0.88747
H          2.10689        0.83440        1.10910
H         -0.54741       -2.47725       -0.83964
H         -0.52311       -0.94150       -1.72268
H         -2.79805       -1.77759       -0.64295
H         -2.07333       -1.31127        0.90431
H         -3.56783        0.45902       -0.00412
H         -2.61774        0.52621       -1.51137
