38
molCl921_clust-28
C         -5.99108        1.66096        0.61606
C         -5.98616        0.82821       -0.66310
C         -5.14163       -0.44539       -0.58734
C         -3.64675       -0.20890       -0.38164
C         -2.82921       -1.49930       -0.38246
C         -1.31813       -1.29656       -0.26334
C         -0.86805       -0.65738        1.05095
C          0.64702       -0.63631        1.25678
C          1.41553        0.19918        0.23498
C          2.91160        0.27415        0.52470
C          3.68189        1.09640       -0.50333
C          5.17331        1.20079       -0.24124
Cl         6.00531       -0.39488       -0.34940
H         -4.99144        2.05592        0.85353
H         -6.67028        2.52209        0.52792
H         -6.32363        1.06025        1.47812
H         -5.62936        1.44870       -1.50398
H         -7.02281        0.54873       -0.91412
H         -5.52168       -1.08630        0.22909
H         -5.28559       -1.02461       -1.51587
H         -3.48598        0.32773        0.56793
H         -3.27066        0.46100       -1.17696
H         -3.17662       -2.14797        0.44212
H         -3.04197       -2.05471       -1.31218
H         -0.81724       -2.27470       -0.36992
H         -0.97239       -0.68516       -1.11509
H         -1.25100        0.37599        1.11592
H         -1.33373       -1.20574        1.88839
H          1.03383       -1.67115        1.24070
H          0.86438       -0.24909        2.26716
H          1.26905       -0.21643       -0.77674
H          0.99191        1.21995        0.20741
H          3.07168        0.70430        1.52981
H          3.33228       -0.74448        0.55812
H          3.28586        2.12756       -0.52482
H          3.52253        0.68247       -1.51311
H          5.66362        1.85298       -0.97522
H          5.37896        1.59064        0.76546
