17
molCl480_clust-3
C         -3.62025       -0.38676       -0.67905
C         -2.35371       -0.23907        0.11749
O         -2.01130       -0.94598        1.02720
O         -1.62819        0.80445       -0.32043
C         -0.38942        1.05350        0.33233
C          0.72397        0.18740       -0.24242
C          2.05581        0.49269        0.41877
Cl         3.37864       -0.50423       -0.27219
H         -4.19231        0.55099       -0.65212
H         -4.21690       -1.20914       -0.27040
H         -3.37170       -0.58957       -1.73059
H         -0.50136        0.87343        1.41249
H         -0.18418        2.12086        0.16759
H          0.79929        0.35952       -1.32718
H          0.47463       -0.87267       -0.08693
H          2.02726        0.28038        1.49632
H          2.34593        1.54378        0.28114
