33
molCl608_clust-4
C         -2.85768       -1.27123        0.77580
C         -2.14655       -0.64026       -0.43186
C         -3.19993       -0.03556       -1.37729
C         -1.36558       -1.72331       -1.19410
Si        -0.99411        0.76195        0.16085
C         -1.97421        2.16786        0.91009
C          0.03834        1.42461       -1.26493
O         -0.00189        0.24849        1.41840
C          0.77173       -0.90218        1.59295
C          1.89201       -1.04982        0.56633
C          2.83512        0.13861        0.57055
Cl         3.99152        0.06590       -0.80348
H         -3.45723       -0.53203        1.33022
H         -3.54484       -2.07000        0.44526
H         -2.14695       -1.71865        1.48773
H         -3.81842        0.72499       -0.87527
H         -2.74174        0.43351       -2.26302
H         -3.88199       -0.82325       -1.74274
H         -0.81881       -1.30935       -2.05646
H         -2.05685       -2.49158       -1.58334
H         -0.63690       -2.24302       -0.55315
H         -2.57208        2.69300        0.14930
H         -1.28574        2.89761        1.36347
H         -2.65335        1.81359        1.70018
H          0.76165        0.69566       -1.66038
H          0.60579        2.31125       -0.93968
H         -0.60993        1.73917       -2.09842
H          1.20469       -0.85461        2.60720
H          0.14407       -1.81258        1.56434
H          2.45276       -1.97516        0.77393
H          1.46020       -1.16643       -0.44046
H          2.28233        1.08045        0.47357
H          3.43067        0.17954        1.49271
