15
molCl309_clust-2
Cl        -2.03330       -1.07849       -0.03727
C         -1.87048        0.65715        0.42731
C         -0.78063        1.39801       -0.33123
C          0.66536        1.11496        0.08007
C          1.20073       -0.26737       -0.32420
C          2.62031       -0.42154       -0.00386
N          3.74106       -0.52309        0.25903
H         -1.69215        0.67667        1.51149
H         -2.85156        1.10732        0.23047
H         -0.91466        1.23324       -1.41309
H         -0.96928        2.47139       -0.16117
H          1.30942        1.88274       -0.37601
H          0.77051        1.23810        1.17075
H          1.07193       -0.42880       -1.40635
H          0.64272       -1.07181        0.17580
