16
molCl234_conf-6
Cl         1.92902       -0.62189       -0.30323
C          1.26609        0.94634        0.27316
C         -0.24462        0.94265        0.43519
C         -0.82607       -0.21469        1.27659
C         -1.49694       -1.10341        0.22642
C         -1.89743       -0.07733       -0.82722
O         -0.85380        0.87023       -0.83479
H          1.55503        1.70405       -0.46610
H          1.75517        1.16945        1.23087
H         -0.49007        1.91643        0.90453
H         -0.05140       -0.74207        1.85057
H         -1.56905        0.17471        1.98863
H         -2.34976       -1.67377        0.62013
H         -0.76658       -1.80817       -0.19599
H         -2.86103        0.40411       -0.56472
H         -1.99134       -0.49585       -1.83954
