27
molCl1174_clust-5
C         -5.09799       -1.25365        0.39860
O         -3.77900       -0.78322        0.61613
C         -3.19911       -0.15222       -0.41106
O         -3.74623        0.01914       -1.47082
C         -1.81532        0.30658       -0.09390
C         -1.22087        0.09082        1.15207
C          0.07436        0.54177        1.39199
C          0.80033        1.21281        0.40195
C          2.22091        1.66536        0.64292
C          3.26529        0.81072       -0.09042
C          3.24207       -0.64090        0.35386
Cl         4.50519       -1.60545       -0.48347
C          0.19201        1.42456       -0.84280
C         -1.09987        0.97854       -1.09064
H         -5.12425       -1.97491       -0.43098
H         -5.77526       -0.42170        0.15718
H         -5.40939       -1.73727        1.33104
H         -1.77795       -0.43089        1.93090
H          0.53136        0.36983        2.37017
H          2.43239        1.65746        1.72439
H          2.33320        2.70950        0.31085
H          4.26900        1.22699        0.08758
H          3.09196        0.85513       -1.17777
H          3.43213       -0.73287        1.43262
H          2.27753       -1.11643        0.13118
H          0.74100        1.95080       -1.62848
H         -1.57900        1.14338       -2.05747
