16
molCl234_conf-4
Cl         2.48490       -0.23725        0.07581
C          1.01305        0.75274        0.31955
C         -0.13472        0.31325       -0.57699
C         -1.40081        1.16355       -0.33994
C         -2.23742        0.26987        0.57646
C         -1.85892       -1.11247        0.05863
O         -0.49469       -1.02193       -0.28651
H          1.28537        1.79510        0.10538
H          0.72958        0.66351        1.37758
H          0.20176        0.37948       -1.62670
H         -1.17836        2.15035        0.09138
H         -1.92338        1.33076       -1.29373
H         -3.31540        0.47515        0.52030
H         -1.92407        0.38398        1.62614
H         -2.46911       -1.37892       -0.82711
H         -1.97918       -1.91238        0.80380
