22
molCl372_clust-4
Cl        -4.76116       -0.17445        0.00004
C         -3.17060        0.65601        0.00008
C         -2.02352       -0.33770       -0.00005
C         -0.67569        0.36336       -0.00007
O          0.32051       -0.62540       -0.00013
C          1.62218       -0.25897       -0.00006
C          2.55565       -1.30523        0.00001
C          3.91533       -1.02562        0.00008
C          4.36954        0.29657        0.00008
C          3.44077        1.33132        0.00001
C          2.06847        1.06686       -0.00006
H         -3.14879        1.29962        0.89051
H         -3.14884        1.29980       -0.89022
H         -2.09193       -0.98776        0.88517
H         -2.09204       -0.98764       -0.88535
H         -0.57694        1.01186       -0.89186
H         -0.57688        1.01182        0.89175
H          2.18328       -2.33100        0.00001
H          4.63162       -1.85037        0.00013
H          5.43905        0.51396        0.00013
H          3.77973        2.36986        0.00001
H          1.36459        1.89917       -0.00011
