16
molCl234_conf-3
Cl        -2.55417       -0.26160        0.08077
C         -1.14220        0.76814       -0.31391
C          0.13820        0.26647        0.31232
C          1.33509        1.21703        0.09934
C          2.53066        0.25405       -0.05262
C          1.87635       -1.13632        0.05285
O          0.52584       -0.94494       -0.28260
H         -1.36699        1.78181        0.04312
H         -1.03804        0.78177       -1.40743
H         -0.02811        0.11623        1.39924
H          1.19073        1.81187       -0.81565
H          1.44718        1.91965        0.93666
H          3.29691        0.40432        0.72059
H          3.01739        0.38546       -1.02895
H          1.96499       -1.52915        1.08526
H          2.30147       -1.88154       -0.63290
