20
molCl995_clust-7
C          4.02489        0.93488        0.15713
C          2.92810        0.10597       -0.46933
O          1.81029        0.10776        0.41951
C          0.72799       -0.56855        0.03093
O          0.66167       -1.16891       -1.01211
C         -0.37194       -0.48568        1.06372
C         -1.66752       -1.15738        0.62859
C         -2.37469       -0.47791       -0.53209
Cl        -2.87113        1.21016       -0.13340
H          4.32988        0.51401        1.12597
H          4.90314        0.95478       -0.50384
H          3.68968        1.96928        0.31940
H          3.24753       -0.93369       -0.64314
H          2.61229        0.51202       -1.44311
H          0.01434       -0.94395        1.98801
H         -0.53831        0.57618        1.30329
H         -1.45612       -2.19227        0.31413
H         -2.35207       -1.21090        1.48881
H         -3.29259       -1.01546       -0.80059
H         -1.72523       -0.42140       -1.41405
