19
molCl238_conf-2
Cl         2.85987       -0.27765       -0.16216
C          1.50854        0.80311        0.33065
C          0.16262        0.33398       -0.19834
C         -0.25617       -1.03726        0.33845
C         -1.66230       -1.38940       -0.13245
O         -2.59676       -0.40266        0.22422
C         -2.29392        0.85172       -0.32354
C         -0.92892        1.35929        0.13433
H          1.75392        1.80397       -0.04964
H          1.51296        0.83618        1.42981
H          0.24181        0.26419       -1.29915
H          0.45720       -1.81086        0.01674
H         -0.24330       -1.01541        1.44230
H         -2.00484       -2.32982        0.32153
H         -1.66053       -1.53090       -1.23421
H         -2.31344        0.79994       -1.43311
H         -3.09231        1.53900       -0.00956
H         -0.95931        1.52616        1.22511
H         -0.71481        2.33033       -0.34152
