38
molCl921_clust-32
C         -6.81664       -1.94302       -0.41004
C         -6.02771       -0.85860        0.31528
C         -4.63951       -0.62229       -0.27454
C         -3.84230        0.46130        0.44544
C         -2.45614        0.69870       -0.14720
C         -1.65965        1.77626        0.58596
C         -0.30663        2.11079       -0.04260
C          0.69520        0.95748       -0.05566
C          2.06843        1.36507       -0.58669
C          3.06897        0.21847       -0.72787
C          3.44046       -0.45309        0.59210
C          4.49789       -1.53531        0.46832
Cl         6.09159       -0.88810       -0.07231
H         -7.81078       -2.08910        0.03806
H         -6.96279       -1.68579       -1.47123
H         -6.28885       -2.90941       -0.37498
H         -5.92665       -1.12489        1.38189
H         -6.59499        0.08823        0.29482
H         -4.06939       -1.56883       -0.25491
H         -4.73795       -0.35415       -1.34210
H         -3.74075        0.19169        1.51219
H         -4.41369        1.40684        0.42855
H         -1.89775       -0.25336       -0.13987
H         -2.55661        0.98145       -1.21097
H         -2.26726        2.69637        0.63190
H         -1.50755        1.46393        1.63509
H         -0.46253        2.46675       -1.07702
H          0.13951        2.95993        0.50325
H          0.30743        0.12735       -0.67186
H          0.78822        0.55768        0.96976
H          1.93931        1.84269       -1.57284
H          2.49700        2.14368        0.06976
H          2.66199       -0.54216       -1.41861
H          3.98978        0.59851       -1.19759
H          2.55228       -0.93140        1.04004
H          3.78407        0.30517        1.31606
H          4.67914       -2.02895        1.43160
H          4.20754       -2.29901       -0.26667
