38
molCl921_clust-10
C         -5.08021        2.61039        0.76577
C         -3.91688        1.74660        0.29066
C         -4.35786        0.58786       -0.60314
C         -3.21496       -0.24804       -1.18040
C         -2.38144       -0.99463       -0.14086
C         -1.29182       -1.86679       -0.75978
C         -0.48395       -2.68685        0.24830
C          0.23326       -1.87287        1.33153
C          1.13933       -0.74984        0.82072
C          2.26347       -1.22062       -0.10186
C          3.15080       -0.10017       -0.65000
C          3.94550        0.61942        0.42639
Cl         5.04194        1.85941       -0.27789
H         -4.73694        3.43392        1.40953
H         -5.80609        2.01551        1.34278
H         -5.62063        3.05404       -0.08557
H         -3.37394        1.35704        1.16802
H         -3.19199        2.37105       -0.26102
H         -5.03978       -0.06973       -0.03374
H         -4.95779        0.99313       -1.43634
H         -2.55020        0.40522       -1.77448
H         -3.63251       -0.97961       -1.89346
H         -1.92273       -0.26917        0.55144
H         -3.04681       -1.62425        0.47813
H         -1.75388       -2.55788       -1.48548
H         -0.61388       -1.22807       -1.35389
H         -1.15573       -3.40745        0.74551
H          0.25028       -3.29954       -0.30116
H          0.83232       -2.56418        1.94899
H         -0.51258       -1.43587        2.01607
H          0.53582        0.00938        0.29197
H          1.56583       -0.23169        1.69567
H          2.88747       -1.96226        0.42919
H          1.83102       -1.75528       -0.96277
H          2.53440        0.63615       -1.19210
H          3.85858       -0.51613       -1.38398
H          3.29755        1.14944        1.13620
H          4.57771       -0.08050        0.99071
