19
molCl425_conf-8
Cl        -2.57105        1.09246       -0.50113
C         -2.71677       -0.59619        0.08738
C         -1.48837       -1.09367        0.82060
O         -0.40570       -1.31935       -0.04276
C          0.72469       -0.56682        0.01377
C          0.78119        0.74146        0.50304
C          2.00013        1.42131        0.50739
C          3.15804        0.82083        0.02078
C          3.09033       -0.48082       -0.47985
C          1.88538       -1.17401       -0.48021
H         -3.58854       -0.63295        0.75442
H         -2.91023       -1.22625       -0.79029
H         -1.22126       -0.41765        1.64846
H         -1.75407       -2.06878        1.26514
H         -0.12207        1.24906        0.84147
H          2.03325        2.44482        0.88777
H          4.10528        1.36324        0.02470
H          3.98849       -0.96594       -0.86883
H          1.81501       -2.19509       -0.85894
