20
molCl910_clust-8
C          2.96966        1.07736       -0.07525
C          2.89353       -0.43732       -0.24272
C          1.64578       -1.10920        0.33890
C          0.30436       -0.64814       -0.25002
C         -0.35603        0.50722        0.50168
C         -1.66292        0.98504       -0.10436
Cl        -2.94605       -0.28173       -0.07326
H          3.93601        1.46534       -0.43070
H          2.18391        1.59227       -0.64960
H          2.86052        1.37095        0.98142
H          2.96087       -0.68456       -1.31673
H          3.78137       -0.89457        0.22516
H          1.62953       -0.96910        1.43484
H          1.74848       -2.19468        0.18172
H          0.44227       -0.36680       -1.31020
H         -0.40482       -1.49013       -0.25497
H         -0.53284        0.21322        1.54984
H          0.31561        1.38071        0.53665
H         -2.06743        1.84405        0.44610
H         -1.53690        1.27288       -1.15753
