12
molCl2074_clust-5
O         -2.00435       -0.62097       -0.56741
C         -1.45403       -0.12639        0.62861
C         -0.55326        1.04731        0.28808
C          0.59271        0.68776       -0.63983
Cl         1.76241       -0.44715        0.13332
H         -2.40400       -1.47642       -0.39523
H         -2.24153        0.21460        1.32840
H         -0.85635       -0.89670        1.15109
H         -0.16316        1.49361        1.21618
H         -1.15664        1.81967       -0.21860
H          0.21527        0.18688       -1.53971
H          1.16779        1.57558       -0.93045
