33
molCl608_clust-8
C         -3.28389       -1.11161        0.06395
C         -1.75306       -1.03532       -0.04597
C         -1.29604       -1.62698       -1.38931
C         -1.10901       -1.83092        1.10121
Si        -1.19045        0.77053        0.05842
C         -1.43349        1.49061        1.77767
C         -2.05864        1.85764       -1.20349
O          0.45140        0.71961       -0.29137
C          1.38714        1.73602       -0.11868
C          2.78750        1.24169       -0.45012
C          3.30432        0.11022        0.42699
Cl         2.71472       -1.52095       -0.05367
H         -3.61873       -2.16322        0.03170
H         -3.65429       -0.68193        1.00957
H         -3.78420       -0.58408       -0.76419
H         -1.73733       -1.09248       -2.24645
H         -1.60686       -2.68383       -1.46663
H         -0.20116       -1.58489       -1.48867
H         -0.01038       -1.76961        1.06353
H         -1.38779       -2.89711        1.03019
H         -1.44200       -1.47172        2.08856
H         -2.48511        1.40287        2.09402
H         -1.17008        2.55992        1.80629
H         -0.81270        0.96630        2.52061
H         -1.63989        2.87673       -1.19589
H         -1.94593        1.45493       -2.22175
H         -3.13515        1.94142       -0.98589
H          1.15932        2.60590       -0.76642
H          1.37687        2.10948        0.92647
H          2.83748        0.93768       -1.50738
H          3.47867        2.09351       -0.32914
H          4.39884        0.04989        0.37545
H          3.01616        0.25403        1.47794
