14
molCl248_conf-2
Cl        -2.52232        0.24369       -0.04404
C         -1.08154       -0.74497        0.32512
C          0.15379       -0.21534       -0.37220
O          1.20425       -1.13754       -0.19181
C          2.37551       -0.42486        0.15088
C          1.95910        1.03780       -0.02917
O          0.57243        0.98426        0.19583
H         -1.27390       -1.77120       -0.01011
H         -0.91607       -0.73363        1.40977
H         -0.04272       -0.08515       -1.45857
H          2.65732       -0.64477        1.19444
H          3.20642       -0.71895       -0.50865
H          2.18033        1.39547       -1.05288
H          2.41356        1.72600        0.69486
