22
molCl372_clust-5
Cl         4.15084       -0.12268       -0.12528
C          2.81268        0.93704        0.45319
C          1.53161        0.16750        0.70871
C          0.96543       -0.50933       -0.53561
O         -0.24180       -1.18168       -0.27230
C         -1.40263       -0.49633       -0.15783
C         -2.52237       -1.25422        0.21414
C         -3.76591       -0.65022        0.34209
C         -3.91966        0.71843        0.10433
C         -2.80813        1.46863       -0.26399
C         -1.55032        0.87506       -0.39667
H          2.67475        1.71106       -0.31502
H          3.17201        1.42011        1.37022
H          1.69611       -0.59502        1.48552
H          0.79476        0.88064        1.11463
H          0.84527        0.21621       -1.36096
H          1.66396       -1.28053       -0.88631
H         -2.38484       -2.32174        0.39420
H         -4.62799       -1.25554        0.63147
H         -4.89770        1.19190        0.20661
H         -2.90994        2.53963       -0.45410
H         -0.70055        1.49287       -0.68821
