19
molCl1233_conf-9
C         -2.46645       -0.73202       -0.76533
O         -1.73900       -0.60708        0.43184
C         -0.48381        0.00397        0.37722
C         -0.03696        0.14138        1.82446
C          0.44530       -0.91286       -0.45942
Cl         2.20872       -0.65224       -0.24199
O         -0.68741        1.25481       -0.22872
C          0.40460        2.07923       -0.52619
H         -3.48694       -1.02082       -0.48263
H         -2.50235        0.21775       -1.31908
H         -2.05997       -1.52008       -1.42554
H          0.03317       -0.85052        2.29102
H          0.94153        0.63088        1.90349
H         -0.79309        0.73390        2.35550
H          0.23385       -0.78976       -1.52937
H          0.24467       -1.95086       -0.16724
H         -0.01043        3.03769       -0.86566
H          1.04190        1.66992       -1.32890
H          1.04451        2.26997        0.35296
