19
molCl1233_conf-10
C         -0.40461        2.07923       -0.52621
O          0.68741        1.25482       -0.22872
C          0.48381        0.00398        0.37722
C          0.03695        0.14140        1.82446
C         -0.44529       -0.91286       -0.45942
Cl        -2.20872       -0.65226       -0.24199
O          1.73900       -0.60706        0.43184
C          2.46644       -0.73204       -0.76533
H          0.01042        3.03768       -0.86569
H         -1.04190        1.66991       -1.32891
H         -1.04452        2.26998        0.35295
H         -0.94153        0.63091        1.90348
H         -0.03320       -0.85050        2.29102
H          0.79309        0.73391        2.35550
H         -0.24466       -1.95086       -0.16723
H         -0.23384       -0.78976       -1.52936
H          3.48695       -1.02078       -0.48262
H          2.50230        0.21771       -1.31912
H          2.05999       -1.52015       -1.42548
