19
molCl467_clust-8
C          3.68423       -0.17985        0.27965
C          2.21139       -0.33877       -0.03044
O          1.63485       -1.38512        0.14165
C          1.50507        0.89380       -0.57334
C         -0.00950        0.76706       -0.67382
C         -0.70815        0.72169        0.68301
C         -2.22400        0.72970        0.60366
Cl        -2.88221       -0.71710       -0.24300
H          3.79622        0.43182        1.18940
H          4.20977        0.34618       -0.53131
H          4.13751       -1.16355        0.45236
H          1.80111        1.76551        0.03761
H          1.94123        1.08347       -1.57060
H         -0.39942        1.61792       -1.25746
H         -0.25954       -0.14626       -1.23402
H         -0.41746        1.60447        1.28147
H         -0.37774       -0.16867        1.23951
H         -2.67295        0.73263        1.60521
H         -2.59416        1.60637        0.05327
