38
molCl921_clust-2
C         -0.41374        2.74847        1.60329
C         -0.51289        2.56417        0.09143
C          0.45977        1.52918       -0.47475
C          1.93674        1.91994       -0.39566
C          2.91006        0.90349       -1.01219
C          3.43653       -0.17974       -0.06197
C          2.40019       -1.10137        0.58488
C          1.62146       -1.97142       -0.40151
C          0.57313       -2.87674        0.25385
C         -0.62656       -2.14292        0.86185
C         -1.56119       -1.52315       -0.17855
C         -2.57872       -0.59900        0.46199
Cl        -3.61743        0.20945       -0.76455
H          0.56725        3.14404        1.90803
H         -1.17913        3.44708        1.97271
H         -0.55726        1.78948        2.12956
H         -0.34921        3.53378       -0.41056
H         -1.53902        2.25852       -0.17208
H          0.29790        0.57461        0.04989
H          0.20363        1.33785       -1.53133
H          2.22588        2.10326        0.65434
H          2.05514        2.88939       -0.90935
H          2.44045        0.43976       -1.89738
H          3.78797        1.44462       -1.40031
H          4.16663       -0.79924       -0.61191
H          4.00862        0.31576        0.74146
H          2.91807       -1.76222        1.30149
H          1.70775       -0.49708        1.19436
H          2.33879       -2.60080       -0.95527
H          1.13937       -1.33720       -1.16416
H          0.20347       -3.60238       -0.49047
H          1.06311       -3.47304        1.04223
H         -1.20108       -2.84401        1.49009
H         -0.26861       -1.35566        1.54859
H         -2.08203       -2.31518       -0.74079
H         -0.98653       -0.94403       -0.91682
H         -3.25083       -1.13730        1.14426
H         -2.08255        0.20394        1.02488
