38
molCl921_clust-19
C          5.96173        2.09138        0.57324
C          4.95294        0.94802        0.55546
C          4.74939        0.35139       -0.83681
C          3.81705       -0.85960       -0.88695
C          2.37093       -0.57018       -0.48904
C          1.45472       -1.78398       -0.63267
C         -0.01828       -1.50979       -0.32686
C         -0.29670       -1.09561        1.11864
C         -1.78145       -1.00790        1.47378
C         -2.55264        0.05465        0.69407
C         -4.01077        0.16887        1.12664
C         -4.81487        1.20882        0.36777
Cl        -4.98148        0.80844       -1.38230
H          6.08763        2.50532        1.58487
H          6.95095        1.75533        0.22357
H          5.64117        2.91337       -0.08656
H          3.98945        1.30935        0.95214
H          5.28357        0.15043        1.24411
H          4.36526        1.13578       -1.51423
H          5.73340        0.05949       -1.24308
H          4.21903       -1.65646       -0.23514
H          3.82749       -1.27452       -1.90963
H          2.34080       -0.20740        0.55158
H          1.98020        0.25639       -1.11088
H          1.53784       -2.17243       -1.66234
H          1.82047       -2.59330        0.02515
H         -0.38699       -0.73171       -1.01745
H         -0.60511       -2.41711       -0.55328
H          0.17795       -0.12121        1.32810
H          0.18920       -1.82054        1.79480
H         -2.25533       -1.99228        1.30806
H         -1.87916       -0.80326        2.55415
H         -2.05605        1.03415        0.81956
H         -2.52237       -0.16884       -0.38402
H         -4.06138        0.43980        2.19654
H         -4.50921       -0.81034        1.03147
H         -5.83574        1.29127        0.76209
H         -4.34023        2.19881        0.41596
