17
molCl480_clust-1
C         -3.70635       -1.00307        0.00019
C         -2.66563        0.08292       -0.00014
O         -2.88148        1.26506        0.00011
O         -1.42621       -0.43352       -0.00038
C         -0.35142        0.49640       -0.00012
C          0.94308       -0.29475       -0.00014
C          2.15177        0.62447        0.00012
Cl         3.68651       -0.30535        0.00007
H         -3.57646       -1.64410       -0.88313
H         -4.70517       -0.55411       -0.00290
H         -3.58026       -1.63934        0.88754
H         -0.43007        1.14917        0.88504
H         -0.42991        1.14946       -0.88508
H          0.97375       -0.94814        0.88518
H          0.97391       -0.94784       -0.88568
H          2.16811        1.26870        0.89027
H          2.16825        1.26902       -0.88980
