38
molCl921_clust-4
C         -4.44907       -1.00320        1.18167
C         -3.91694       -1.08463       -0.24658
C         -2.62349       -0.30251       -0.48244
C         -2.75676        1.20986       -0.29902
C         -1.51342        2.00418       -0.70216
C         -0.27949        1.71780        0.15039
C          0.94396        2.53090       -0.26643
C          2.16600        2.34321        0.63833
C          2.59770        0.88983        0.85092
C          2.92286        0.14152       -0.43964
C          3.36125       -1.30835       -0.23677
C          2.35283       -2.20024        0.46903
Cl         0.76591       -2.26506       -0.38836
H         -3.68784       -1.33624        1.90574
H         -5.33683       -1.63985        1.31397
H         -4.73859        0.02337        1.45404
H         -3.73978       -2.14194       -0.50435
H         -4.69182       -0.72767       -0.94803
H         -1.84111       -0.69811        0.18760
H         -2.26573       -0.50307       -1.50761
H         -3.61624        1.56452       -0.89483
H         -3.00175        1.44087        0.75253
H         -1.27586        1.79448       -1.76102
H         -1.74283        3.08278       -0.65177
H         -0.51383        1.92210        1.21174
H         -0.04061        0.64330        0.09204
H          1.20508        2.27487       -1.30826
H          0.68207        3.60283       -0.28402
H          1.95345        2.79073        1.62443
H          3.01133        2.91667        0.22019
H          3.47919        0.87069        1.51551
H          1.79897        0.35882        1.39569
H          2.04484        0.14595       -1.10526
H          3.72045        0.67748       -0.98138
H          4.28494       -1.34139        0.36879
H          3.61114       -1.75669       -1.21161
H          2.71246       -3.23543        0.52662
H          2.13594       -1.85334        1.48756
