22
molCl372_clust-2
Cl        -2.68421        1.39825       -0.07616
C         -2.25812       -0.00898        0.97021
C         -2.23072       -1.30758        0.18517
C         -1.09337       -1.44854       -0.81713
O          0.14711       -1.62908       -0.16773
C          1.09415       -0.66117       -0.11724
C          2.36869       -1.08523        0.28469
C          3.40987       -0.17177        0.39031
C          3.20282        1.17751        0.09343
C          1.93633        1.59464       -0.30359
C          0.87761        0.68957       -0.40970
H         -3.01693       -0.04071        1.76169
H         -1.28366        0.21592        1.42489
H         -2.14806       -2.13536        0.90900
H         -3.19024       -1.43411       -0.34106
H         -1.25974       -2.35593       -1.41753
H         -1.06901       -0.59577       -1.51394
H          2.51418       -2.14372        0.50712
H          4.39709       -0.51859        0.70432
H          4.02180        1.89450        0.17442
H          1.75301        2.64717       -0.53155
H         -0.10742        1.05832       -0.69777
