19
molCl238_conf-7
Cl        -2.86001        0.27762       -0.16251
C         -1.50870       -0.80295        0.33123
C         -0.16274       -0.33405       -0.19788
C          0.25627        1.03721        0.33871
C          1.66239        1.38926       -0.13245
O          2.59688        0.40261        0.22406
C          2.29394       -0.85158       -0.32394
C          0.92905       -1.35933        0.13420
H         -1.75394       -1.80399       -0.04852
H         -1.51311       -0.83538        1.43036
H         -0.24229       -0.26419       -1.29860
H         -0.45713        1.81100        0.01742
H          0.24386        1.01554        1.44256
H          1.66041        1.53082       -1.23414
H          2.00528        2.32949        0.32163
H          2.31346       -0.79977       -1.43345
H          3.09249       -1.53861       -0.00985
H          0.71493       -2.33048       -0.34144
H          0.95989       -1.52623        1.22496
