19
molCl425_conf-6
Cl         2.96039       -0.65428       -0.74988
C          2.13009        0.85627       -0.26487
C          1.46771        0.72532        1.09569
O          0.48484       -0.27098        1.15146
C         -0.71023       -0.10027        0.53599
C         -1.17021        1.10966        0.00493
C         -2.43615        1.16867       -0.58371
C         -3.24755        0.04145       -0.65072
C         -2.78173       -1.16386       -0.11812
C         -1.52567       -1.23807        0.46863
H          2.88202        1.65631       -0.23375
H          1.40079        1.08803       -1.05194
H          2.22021        0.43919        1.84342
H          1.06474        1.71136        1.39293
H         -0.56329        2.01473        0.04467
H         -2.78474        2.11897       -0.99452
H         -4.23398        0.09706       -1.11445
H         -3.40550       -2.05944       -0.16336
H         -1.14317       -2.17067        0.88636
