38
molCl921_clust-33
C         -6.51391        1.09148       -0.99283
C         -6.28693       -0.01427        0.03444
C         -4.82227       -0.42084        0.21054
C         -3.91942        0.69056        0.74687
C         -2.50175        0.23891        1.10056
C         -1.67936       -0.26548       -0.08355
C         -0.24019       -0.61614        0.28439
C          0.58257       -1.11751       -0.90074
C          2.00061       -1.56937       -0.55037
C          2.90410       -0.46056       -0.01515
C          4.33704       -0.92586        0.22372
C          5.26482        0.14139        0.77488
Cl         5.50599        1.50685       -0.37741
H         -7.58674        1.29328       -1.13057
H         -6.09799        0.81136       -1.97427
H         -6.03894        2.03701       -0.68952
H         -6.86723       -0.90442       -0.26010
H         -6.69447        0.30237        1.01073
H         -4.77056       -1.28206        0.89978
H         -4.43455       -0.78378       -0.75750
H         -4.38991        1.12472        1.64649
H         -3.85860        1.51134        0.01113
H         -1.96636        1.08218        1.57011
H         -2.55168       -0.55257        1.87034
H         -2.16188       -1.15382       -0.52637
H         -1.67574        0.50344       -0.87750
H          0.24085        0.27246        0.72844
H         -0.24356       -1.38642        1.07721
H          0.63336       -0.32457       -1.66839
H          0.04827       -1.96001       -1.37247
H          1.95003       -2.38971        0.18862
H          2.46836       -2.00289       -1.45099
H          2.49644       -0.06173        0.92981
H          2.91310        0.38261       -0.72605
H          4.76487       -1.32685       -0.71042
H          4.33908       -1.75969        0.94854
H          6.26298       -0.26477        0.98265
H          4.86716        0.58219        1.69970
