12
molCl2074_clust-1
O         -2.30251       -0.74541       -0.27741
C         -1.89181        0.51027        0.20163
C         -0.44093        0.72876       -0.19335
C          0.47213       -0.33849        0.38369
Cl         2.18409       -0.07101       -0.09352
H         -3.20532       -0.90758        0.00605
H         -2.50354        1.33018       -0.22185
H         -1.98656        0.57300        1.30512
H         -0.35943        0.72080       -1.29151
H         -0.11764        1.72339        0.15139
H          0.44411       -0.33928        1.48241
H          0.18248       -1.33345        0.02555
