29
molCl542_conf-9
C          3.66520       -0.82083       -0.12927
C          2.76038        0.38086        0.13957
C          2.70178        1.33078       -1.05614
C          3.21061        1.12330        1.39390
O          1.42601       -0.06746        0.48466
C          0.67183       -0.76833       -0.37426
O          0.98051       -1.11633       -1.49209
N         -0.52755       -1.05528        0.19686
C         -1.21563       -0.42952        1.31557
C         -2.55313       -0.92059        0.70372
C         -3.62335        0.11181        0.41611
Cl        -3.01918        1.50416       -0.55042
C         -1.73533       -1.47442       -0.49251
H          3.65129       -1.50699        0.73086
H          3.33751       -1.36509       -1.02337
H          4.69992       -0.47867       -0.27951
H          2.37049        0.80400       -1.95930
H          2.00518        2.15745       -0.85056
H          3.69888        1.75834       -1.23850
H          2.53387        1.96333        1.60776
H          4.22761        1.51859        1.25783
H          3.20987        0.44812        2.26188
H         -1.10098        0.66587        1.34659
H         -0.95644       -0.84819        2.30028
H         -3.02049       -1.71927        1.29974
H         -4.02668        0.52884        1.34878
H         -4.45075       -0.33080       -0.15478
H         -1.80905       -2.55959       -0.66229
H         -1.89763       -0.94777       -1.44696
