18
molCl267_conf-4
Cl         3.51512        0.00005       -0.14562
C          1.75789       -0.00036       -0.52271
C          0.91035        0.00024        0.74399
C         -0.56105        0.00006        0.40210
C         -1.25130       -1.20275        0.21383
C         -2.59696       -1.20517       -0.14920
C         -3.27379       -0.00006       -0.33241
C         -2.59701        1.20513       -0.14938
C         -1.25137        1.20282        0.21365
H          1.55758        0.88963       -1.13428
H          1.55780       -0.89105       -1.13333
H          1.16606        0.88576        1.34537
H          1.16610       -0.88465        1.34627
H         -0.72733       -2.15160        0.36035
H         -3.12072       -2.15378       -0.28665
H         -4.32884       -0.00009       -0.61447
H         -3.12083        2.15368       -0.28698
H         -0.72740        2.15170        0.36002
