20
molCl910_clust-2
C          2.27245       -1.35753        0.47391
C          1.85188       -0.51763       -0.73098
C          1.70630        0.98541       -0.42873
C          0.28568        1.51109       -0.19686
C         -0.49480        0.96568        1.00402
C         -1.13723       -0.40641        0.85281
Cl        -2.28394       -0.48801       -0.53626
H          2.29694       -2.43082        0.23176
H          3.27925       -1.06986        0.81551
H          1.59565       -1.22420        1.33239
H          2.60574       -0.65776       -1.52204
H          0.90984       -0.90126       -1.15891
H          2.33649        1.24257        0.44187
H          2.12277        1.56211       -1.27006
H          0.35517        2.60395       -0.07385
H         -0.31808        1.35303       -1.10601
H         -1.29658        1.67844        1.25520
H          0.16185        0.91846        1.89171
H         -0.40587       -1.20446        0.68672
H         -1.72188       -0.65778        1.74723
