26
molCl3001_conf-2
C         -4.46733        0.43319       -0.00543
C         -3.04233       -0.05133       -0.02645
C         -2.38572       -0.36618        1.17385
C         -1.06689       -0.79677        1.17861
C         -0.38841       -0.91273       -0.03454
S          1.31786       -1.40644       -0.02669
O          1.50940       -2.41956        0.99683
O          1.71015       -1.62510       -1.41058
N          2.11663       -0.07261        0.55848
C          2.58427        0.98800       -0.30304
C          2.13524        2.36936        0.14463
Cl         0.35336        2.55409        0.09245
C         -1.01492       -0.62291       -1.23978
C         -2.34084       -0.19286       -1.22656
H         -4.53556        1.42019        0.47842
H         -4.87831        0.52601       -1.01985
H         -5.11109       -0.25462        0.56327
H         -2.92311       -0.27177        2.12098
H         -0.56123       -1.04561        2.11324
H          2.64010       -0.29940        1.39733
H          3.68727        0.98799       -0.36012
H          2.22606        0.78639       -1.32325
H          2.44908        2.57408        1.17726
H          2.56545        3.13780       -0.51161
H         -0.46512       -0.73635       -2.17511
H         -2.83765        0.03775       -2.17206
