22
molCl431_clust-6
Cl        -4.66044        0.11360       -0.00581
C         -2.95685        0.65657       -0.08648
C         -2.01951       -0.52781        0.04525
O         -0.71532       -0.03599       -0.02636
C          0.27164       -1.01860        0.07862
C          1.64854       -0.40381        0.02890
C          1.82922        0.97948        0.06310
C          3.11453        1.52176        0.03233
C          4.22939        0.68901       -0.03055
C          4.05380       -0.69501       -0.06518
C          2.77144       -1.23611       -0.03739
H         -2.78957        1.37467        0.72622
H         -2.80578        1.16419       -1.04749
H         -2.22095       -1.25658       -0.76478
H         -2.20329       -1.04656        1.00713
H          0.16849       -1.76131       -0.73910
H          0.15491       -1.58044        1.02910
H          0.95277        1.62633        0.11023
H          3.24356        2.60626        0.05767
H          5.23448        1.11559       -0.05458
H          4.92144       -1.35650       -0.11725
H          2.64073       -2.32192       -0.06907
