20
molCl910_clust-1
C          2.79590       -0.94115       -0.00397
C          1.74295        0.00960        0.55183
C          1.13821        0.91884       -0.51889
C          0.00394        1.82681       -0.02033
C         -1.42768        1.29905       -0.16180
C         -1.79719        0.03278        0.59737
Cl        -1.29491       -1.48717       -0.23804
H          2.35126       -1.62354       -0.74534
H          3.60988       -0.39059       -0.50271
H          3.24491       -1.55664        0.78978
H          2.18622        0.63848        1.34401
H          0.94851       -0.58157        1.03375
H          1.94705        1.54782       -0.92803
H          0.77808        0.30399       -1.36124
H          0.18824        2.08960        1.03705
H          0.03904        2.78158       -0.56903
H         -1.67543        1.15240       -1.22613
H         -2.11210        2.08509        0.20171
H         -1.34343        0.00883        1.59824
H         -2.88557       -0.04908        0.70940
