27
molCl1174_clust-2
C          5.09791       -1.25382        0.39841
O          3.77895       -0.78337        0.61603
C          3.19913       -0.15213       -0.41104
O          3.74628        0.01944       -1.47075
C          1.81533        0.30662       -0.09385
C          1.22081        0.09056        1.15204
C         -0.07443        0.54148        1.39201
C         -0.80032        1.21279        0.40210
C         -2.22091        1.66529        0.64310
C         -3.26527        0.81071       -0.09034
C         -3.24207       -0.64095        0.35379
Cl        -4.50518       -1.60540       -0.48369
C         -0.19194        1.42482       -0.84257
C          1.09994        0.97884       -1.09046
H          5.12424       -1.97451       -0.43166
H          5.77534       -0.42179        0.15771
H          5.40908       -1.73811        1.33059
H          1.77784       -0.43136        1.93077
H         -0.53147        0.36930        2.37012
H         -2.33321        2.70947        0.31114
H         -2.43240        1.65728        1.72457
H         -3.09191        0.85522       -1.17768
H         -4.26899        1.22696        0.08767
H         -2.27754       -1.11648        0.13108
H         -3.43217       -0.73305        1.43253
H         -0.74088        1.95127       -1.62815
H          1.57912        1.14390       -2.05723
