19
molCl1233_conf-13
C         -0.28465        1.97859        0.55105
O         -0.55149        0.68754        1.03958
C         -0.37637       -0.45113        0.25055
C          0.00404       -1.57916        1.19328
C          0.63728       -0.28567       -0.89972
Cl         2.31599        0.05299       -0.36441
O         -1.58446       -0.86289       -0.36035
C         -2.44412        0.11057       -0.88117
H          0.78470        2.12460        0.33079
H         -0.87341        2.23576       -0.34619
H         -0.57185        2.67293        1.35155
H          0.03577       -2.53379        0.65130
H          0.98001       -1.38060        1.65275
H         -0.76157       -1.63912        1.97741
H          0.34614        0.52470       -1.57984
H          0.65800       -1.22370       -1.46569
H         -2.79490        0.80785       -0.10241
H         -3.31354       -0.42201       -1.28857
H         -1.99062        0.69610       -1.70386
