29
molCl542_conf-12
C          3.21020       -1.12341        1.39395
C          2.76006       -0.38094        0.13959
C          2.70109       -1.33096       -1.05602
C          3.66524        0.82042       -0.12945
O          1.42591        0.06785        0.48476
C          0.67177        0.76873       -0.37423
O          0.98041        1.11631       -1.49220
N         -0.52741        1.05620        0.19706
C         -1.73536        1.47455       -0.49257
C         -2.55305        0.92051        0.70360
C         -3.62309       -0.11210        0.41607
Cl        -3.01866       -1.50442       -0.55035
C         -1.21545        0.42984        1.31551
H          4.22706       -1.51903        1.25781
H          3.20975       -0.44814        2.26186
H          2.53321       -1.96320        1.60796
H          2.36990       -0.80416       -1.95921
H          3.69805       -1.75884       -1.23837
H          2.00426       -2.15742       -0.85033
H          4.69985        0.47795       -0.27982
H          3.65165        1.50666        0.73061
H          3.33764        1.36471       -1.02357
H         -1.89722        0.94757       -1.44691
H         -1.80964        2.55964       -0.66262
H         -3.02059        1.71912        1.29956
H         -4.45057        0.33032       -0.15485
H         -4.02634       -0.52912        1.34879
H         -0.95654        0.84825        2.30039
H         -1.10039       -0.66552        1.34612
