35
molCl3000_conf-3
C         -3.66943       -1.55278       -1.13208
C         -3.26749       -0.61167       -0.00025
C         -4.27681        0.52752        0.13440
O         -1.98717       -0.09671       -0.44495
C         -1.28243        0.77769        0.28828
N         -0.10850        1.10945       -0.32904
C          0.38025        0.51636       -1.55966
C          1.66101       -0.27741       -1.30632
C          2.71660        0.57771       -0.59752
C          2.12961        1.22059        0.66361
C          0.83634        1.97203        0.35395
C          4.01524       -0.17349       -0.33671
Cl         3.81690       -1.58132        0.77212
O         -1.63170        1.22788        1.35908
C         -3.09885       -1.38593        1.30627
H         -3.75076       -1.00246       -2.08079
H         -4.64162       -2.01736       -0.91315
H         -2.92130       -2.34944       -1.25525
H         -3.98911        1.21223        0.94113
H         -5.27248        0.11451        0.35427
H         -4.33972        1.09247       -0.80782
H         -0.39958       -0.12095       -1.98655
H          0.58271        1.32752       -2.28440
H          1.42467       -1.15318       -0.68044
H          2.05647       -0.65699       -2.26273
H          3.00204        1.39606       -1.28826
H          1.92174        0.43519        1.40811
H          2.86057        1.91123        1.11481
H          1.05358        2.84404       -0.29112
H          0.35993        2.33970        1.26968
H          4.43299       -0.57409       -1.27030
H          4.76229        0.48271        0.12996
H         -2.33261       -2.16697        1.18873
H         -2.80233       -0.71709        2.12308
H         -4.04845       -1.87393        1.57146
