16
molCl234_conf-2
Cl         2.50724        0.17601        0.03137
C          0.97434       -0.65733        0.45021
C         -0.13250       -0.33235       -0.54919
C         -0.64855        1.11082       -0.46430
C         -1.82594        0.97882        0.50219
C         -2.36443       -0.39772        0.12726
O         -1.23272       -1.16646       -0.23228
H          0.69314       -0.34727        1.46611
H          1.16867       -1.73689        0.45022
H          0.23241       -0.57489       -1.56162
H          0.13070        1.81150       -0.13496
H         -1.00030        1.44253       -1.45293
H         -1.47818        0.98578        1.54740
H         -2.57271        1.77722        0.39275
H         -3.06250       -0.32678       -0.72890
H         -2.88999       -0.90517        0.94998
