38
molCl921_clust-20
C          5.64576       -0.75928        1.44110
C          5.62889       -0.25103        0.00204
C          4.50496        0.74041       -0.30537
C          3.09459        0.17044       -0.16661
C          2.00502        1.15943       -0.57711
C          0.57668        0.66508       -0.34767
C          0.19900       -0.57195       -1.16393
C         -1.28525       -0.93464       -1.09839
C         -1.77551       -1.30892        0.29916
C         -3.21589       -1.82525        0.34209
C         -4.31396       -0.87445       -0.14570
C         -4.54669        0.37845        0.68510
Cl        -3.34792        1.69760        0.39366
H          6.51314       -1.41134        1.62346
H          5.70101        0.07785        2.15581
H          4.74251       -1.34067        1.68141
H          5.55299       -1.10884       -0.68925
H          6.59533        0.23079       -0.22107
H          4.60626        1.62214        0.35350
H          4.63419        1.11808       -1.33451
H          2.91484       -0.14297        0.87688
H          3.01980       -0.74718       -0.77628
H          2.15090        2.09942       -0.01727
H          2.13524        1.42060       -1.64318
H          0.43837        0.45945        0.72803
H         -0.12983        1.47726       -0.58946
H          0.47679       -0.39841       -2.21846
H          0.79748       -1.43853       -0.83188
H         -1.48069       -1.77772       -1.78467
H         -1.87488       -0.08234       -1.47653
H         -1.11804       -2.09516        0.71017
H         -1.67429       -0.44292        0.97176
H         -3.27973       -2.74558       -0.26399
H         -3.45521       -2.13046        1.37579
H         -5.26871       -1.42802       -0.13049
H         -4.15356       -0.58639       -1.19708
H         -5.52341        0.82252        0.45495
H         -4.51130        0.15956        1.76174
