17
molCl480_clust-4
C         -2.27924        1.30500        0.34910
C         -1.64696        0.02195       -0.10752
O         -1.80709       -0.50071       -1.17861
O         -0.84372       -0.48281        0.84348
C         -0.09339       -1.64206        0.51167
C          1.10414       -1.35365       -0.38476
C          2.08430       -0.31486        0.13749
Cl         1.54277        1.38357       -0.12978
H         -1.49089        2.06809        0.42629
H         -2.72163        1.18179        1.34672
H         -3.03683        1.62277       -0.37511
H         -0.74693       -2.38082        0.02354
H          0.23825       -2.04626        1.47895
H          0.76135       -1.07119       -1.39093
H          1.65513       -2.30331       -0.49402
H          3.04759       -0.39826       -0.38082
H          2.26015       -0.42359        1.21685
