19
molCl1233_conf-16
C         -1.94413       -1.79456       -0.04759
O         -1.44477       -0.60859       -0.59484
C         -0.31061        0.00577       -0.00835
C         -0.32815       -0.05856        1.51931
C          0.91421       -0.67999       -0.62575
Cl         2.47879       -0.10229        0.02240
O         -0.28350        1.30796       -0.48551
C         -1.32997        2.15672       -0.09354
H         -2.40339       -1.64691        0.94581
H         -2.72078       -2.15860       -0.73333
H         -1.17475       -2.58399        0.04294
H         -0.15866       -1.08194        1.88172
H          0.47590        0.57787        1.90988
H         -1.29031        0.29455        1.91599
H          0.89770       -0.47824       -1.70304
H          0.87189       -1.76249       -0.45106
H         -1.23141        2.48330        0.95719
H         -2.31285        1.67854       -0.23364
H         -1.27466        3.04550       -0.73502
