19
molCl238_conf-6
Cl         1.99293       -0.85953       -0.00044
C          1.56235        0.89479        0.00041
C          0.07580        1.23813        0.00062
C         -0.69631        0.80876        1.26230
C         -1.27097       -0.60440        1.16645
O         -2.03710       -0.76720       -0.00035
C         -1.27106       -0.60318       -1.16705
C         -0.69638        0.81007       -1.26146
H          2.04763        1.31594        0.89134
H          2.04757        1.31679       -0.89015
H          0.10343        2.34295        0.00119
H         -0.05936        0.89634        2.15763
H         -1.54005        1.50462        1.39934
H         -1.94276       -0.79637        2.01554
H         -0.45865       -1.35367        1.20146
H         -0.45874       -1.35243       -1.20289
H         -1.94291       -0.79426       -2.01629
H         -1.54012        1.50608       -1.39774
H         -0.05948        0.89856       -2.15674
