33
molCl608_clust-13
C         -1.15030       -2.09393        0.66841
C         -1.53196       -1.03948       -0.38258
C         -3.01104       -1.20535       -0.76556
C         -0.65113       -1.23282       -1.62703
Si        -1.24923        0.70227        0.33363
C         -1.89469        0.82675        2.08384
C         -2.04283        2.00809       -0.76370
O          0.40030        1.01178        0.43168
C          1.19633        1.63515       -0.53066
C          2.67502        1.38278       -0.27193
C          3.18141       -0.01628       -0.58074
Cl         2.69264       -1.26414        0.61980
H         -1.80039       -2.04191        1.55625
H         -1.25081       -3.10989        0.24693
H         -0.10715       -1.97252        0.99860
H         -3.30888       -0.51687       -1.57256
H         -3.68322       -1.02940        0.09090
H         -3.20277       -2.23244       -1.12315
H         -0.84405       -0.46870       -2.39892
H         -0.84523       -2.21739       -2.08809
H          0.41689       -1.19924       -1.36251
H         -2.94637        0.50613        2.14939
H         -1.82990        1.86360        2.44780
H         -1.30075        0.19347        2.76002
H         -1.72171        1.91909       -1.81354
H         -3.14060        1.92366       -0.74287
H         -1.77933        3.01890       -0.41378
H          0.94923        1.28802       -1.55451
H          1.02403        2.72875       -0.52100
H          3.24784        2.07210       -0.91645
H          2.91280        1.64653        0.77054
H          2.81878       -0.36167       -1.55970
H          4.27869       -0.03531       -0.59444
