19
molCl1233_conf-12
C         -2.52796       -0.84785       -0.58945
O         -1.63870        0.21993       -0.43539
C         -0.42137        0.02449        0.26288
C         -0.56230       -0.86043        1.49169
C          0.55857       -0.55471       -0.77948
Cl         2.23759       -0.68876       -0.17617
O         -0.02177        1.26145        0.74049
C          0.23113        2.27676       -0.19700
H         -2.99528       -1.15073        0.36384
H         -3.32230       -0.50575       -1.26634
H         -2.05766       -1.74033       -1.04332
H         -0.84926       -1.88793        1.22972
H          0.40023       -0.88941        2.01658
H         -1.31690       -0.42515        2.16084
H          0.57162        0.08604       -1.66927
H          0.23813       -1.55983       -1.08210
H          0.29955        3.21583        0.36693
H         -0.58297        2.36501       -0.93365
H          1.19110        2.12060       -0.72094
