16
molCl234_conf-7
Cl        -2.50700        0.17580       -0.03162
C         -0.97378       -0.65693       -0.45023
C          0.13254       -0.33234        0.54975
C          0.64897        1.11062        0.46559
C          1.82464        0.97879       -0.50288
C          2.36398       -0.39741       -0.12817
O          1.23297       -1.16649        0.23291
H         -0.69230       -0.34626       -1.46588
H         -1.16779       -1.73653       -0.45097
H         -0.23272       -0.57533        1.56191
H         -0.13048        1.81196        0.13815
H          1.00248        1.44125        1.45393
H          2.57129        1.77756       -0.39520
H          1.47488        0.98528       -1.54744
H          3.06323       -0.32601        0.72698
H          2.88864       -0.90490       -0.95143
