19
molCl425_conf-9
Cl         2.57111        1.09244       -0.50108
C          2.71677       -0.59622        0.08739
C          1.48835       -1.09369        0.82058
O          0.40569       -1.31933       -0.04281
C         -0.72470       -0.56681        0.01374
C         -0.78119        0.74150        0.50296
C         -2.00012        1.42134        0.50733
C         -3.15805        0.82084        0.02079
C         -3.09037       -0.48083       -0.47979
C         -1.88541       -1.17402       -0.48017
H          2.91023       -1.22626       -0.79029
H          3.58853       -0.63302        0.75444
H          1.22123       -0.41768        1.64844
H          1.75402       -2.06881        1.26511
H          0.12209        1.24911        0.84132
H         -2.03323        2.44487        0.88767
H         -4.10530        1.36325        0.02473
H         -3.98854       -0.96596       -0.86871
H         -1.81506       -2.19511       -0.85886
