19
molCl467_clust-2
C          2.40267        1.56556        0.09135
C          2.29485        0.07633       -0.14683
O          3.22620       -0.67328        0.01904
C          0.93270       -0.44128       -0.57854
C          0.10419       -0.84088        0.64917
C         -1.25692       -1.44924        0.31454
C         -2.15439       -0.59835       -0.56812
Cl        -2.43348        1.04683        0.11414
H          2.38439        2.08505       -0.88054
H          3.34084        1.80053        0.60864
H          1.54069        1.93629        0.66688
H          0.40415        0.33670       -1.15245
H          1.09225       -1.31721       -1.22633
H          0.68007       -1.56785        1.24291
H         -0.05028        0.04135        1.29159
H         -1.11680       -2.41031       -0.21119
H         -1.78678       -1.67936        1.25232
H         -3.14307       -1.05946       -0.68643
H         -1.72454       -0.44846       -1.56750
