21
molCl3002_conf-9
C         -3.06002        1.72383       -0.51658
O         -1.93005        0.89927       -0.76859
C         -0.96144        0.93094        0.13054
O         -0.94651        1.65472        1.09485
C          0.14697       -0.06625       -0.16925
C         -0.07169       -1.38605        0.58613
Cl        -1.60471       -2.19661        0.14441
N          1.39181        0.52778        0.25216
C          2.58971        0.11140       -0.25179
C          3.80816        0.84296        0.26870
O          2.66464       -0.77964       -1.07453
H         -3.74090        1.57265       -1.36051
H         -3.54787        1.42924        0.42322
H         -2.76277        2.77955       -0.44729
H          0.18397       -0.27809       -1.24699
H          0.75249       -2.06522        0.33644
H         -0.08973       -1.20031        1.66844
H          1.33244        1.23524        0.97585
H          3.58621        1.55196        1.07748
H          4.53768        0.10140        0.62074
H          4.27102        1.38569       -0.56771
