20
molCl910_clust-3
C          3.36422       -0.97422       -0.03400
C          2.54486        0.28997        0.19986
C          1.07234        0.12996       -0.17074
C          0.25688        1.39734        0.08009
C         -1.20117        1.37457       -0.38420
C         -2.15186        0.46828        0.38359
Cl        -2.01537       -1.27777       -0.04899
H          2.97457       -1.81512        0.56120
H          3.33241       -1.27769       -1.09245
H          4.41968       -0.82964        0.24099
H          2.97845        1.12483       -0.37853
H          2.62087        0.58833        1.26035
H          0.98924       -0.15285       -1.23538
H          0.64261       -0.71364        0.39243
H          0.28580        1.64247        1.15749
H          0.75589        2.24069       -0.42802
H         -1.26094        1.12988       -1.45776
H         -1.60849        2.39525       -0.28123
H         -1.98470        0.53653        1.46786
H         -3.19574        0.73759        0.17817
