21
molCl3002_conf-6
C          3.32756        1.26687       -0.22257
O          1.97356        1.09575       -0.61362
C          1.17546        0.52264        0.28136
O          1.49863        0.22845        1.39871
C         -0.25026        0.38514       -0.26519
C         -1.06198        1.53123        0.32475
Cl        -2.78144        1.47352       -0.19033
N         -0.80795       -0.88372        0.11825
C         -0.15120       -2.03710       -0.19518
C         -0.82740       -3.31850        0.23540
O          0.93062       -2.01324       -0.74937
H          3.82915        1.76109       -1.06148
H          3.39893        1.88416        0.68449
H          3.79124        0.29039       -0.02425
H         -0.20017        0.48584       -1.36156
H         -1.04575        1.48343        1.42182
H         -0.65103        2.49296       -0.00511
H         -1.75758       -0.90520        0.46616
H         -1.91566       -3.21647        0.34799
H         -0.60154       -4.10068       -0.49935
H         -0.40306       -3.62865        1.20201
