38
molCl921_clust-18
C         -4.07880       -2.28687        1.22258
C         -4.48557       -1.87570       -0.18999
C         -3.40624       -1.11639       -0.96413
C         -3.02273        0.23538       -0.36575
C         -1.98043        0.98319       -1.19363
C         -1.61832        2.37109       -0.66033
C         -1.07866        2.40131        0.77458
C          0.10087        1.46493        1.04501
C          1.32584        1.72912        0.17063
C          2.54379        0.86994        0.50910
C          2.33319       -0.62396        0.27235
C          3.56547       -1.47723        0.51306
Cl         4.89917       -1.10984       -0.64312
H         -3.89697       -1.41468        1.86900
H         -4.86280       -2.89135        1.70268
H         -3.15526       -2.88826        1.20900
H         -5.39956       -1.25787       -0.14403
H         -4.76037       -2.77754       -0.76170
H         -2.50132       -1.74697       -1.03951
H         -3.75159       -0.96169       -2.00093
H         -2.64120        0.08886        0.65852
H         -3.92836        0.86131       -0.26429
H         -1.06987        0.36219       -1.27031
H         -2.35102        1.08878       -2.22766
H         -0.88072        2.82861       -1.34065
H         -2.50987        3.01955       -0.71052
H         -0.78010        3.43643        1.01410
H         -1.89162        2.15645        1.47836
H         -0.23007        0.41953        0.91988
H          0.39300        1.55874        2.10553
H          1.06869        1.57435       -0.89178
H          1.60391        2.79332        0.26043
H          3.40046        1.20178       -0.09830
H          2.83115        1.03306        1.56365
H          1.97296       -0.79351       -0.75674
H          1.54769       -1.01047        0.94446
H          3.97480       -1.31724        1.52030
H          3.34171       -2.54487        0.39270
