29
molCl542_conf-11
C         -2.70096       -1.33116       -1.05584
C         -2.76007       -0.38093        0.13960
C         -3.21029       -1.12319        1.39405
C         -3.66526        0.82037       -0.12973
O         -1.42595        0.06795        0.48481
C         -0.67177        0.76872       -0.37423
O         -0.98035        1.11621       -1.49225
N          0.52741        1.05621        0.19705
C          1.21548        0.42993        1.31553
C          2.55307        0.92055        0.70355
C          3.62308       -0.11209        0.41604
Cl         3.01863       -1.50446       -0.55029
C          1.73534        1.47450       -0.49264
H         -2.36970       -0.80450       -1.95909
H         -2.00412       -2.15755       -0.84994
H         -3.69789       -1.75909       -1.23823
H         -2.53329       -1.96291        1.60826
H         -3.20994       -0.44777        2.26184
H         -4.22713       -1.51887        1.25789
H         -3.65175        1.50675        0.73023
H         -4.69984        0.47783       -0.28010
H         -3.33760        1.36452       -1.02391
H          1.10042       -0.66542        1.34624
H          0.95660        0.84842        2.30039
H          3.02063        1.71920        1.29944
H          4.02636       -0.52906        1.34878
H          4.45056        0.33031       -0.15491
H          1.80962        2.55958       -0.66278
H          1.89717        0.94745       -1.44695
