15
molCl3003_conf-2
C         -3.28057       -0.19608        0.36388
C         -1.88374        0.19643       -0.07162
O         -1.57485        1.34901       -0.29689
N         -0.98755       -0.82806       -0.19103
C          0.37968       -0.58700       -0.59282
C          1.22767       -0.06974        0.56402
Cl         2.92776        0.16110        0.04338
H         -3.99893        0.23902       -0.34374
H         -3.44165       -1.28117        0.42391
H         -3.47987        0.25216        1.34770
H         -1.27280       -1.76828        0.04294
H          0.80827       -1.52018       -0.98535
H          0.38740        0.15875       -1.40107
H          1.23199       -0.77734        1.40408
H          0.84691        0.90089        0.90571
