22
molCl431_clust-3
Cl        -2.64454        1.31661       -0.01954
C         -2.80767       -0.35504       -0.67798
C         -1.49278       -1.10752       -0.80051
O         -1.01799       -1.65518        0.39535
C         -0.28058       -0.80229        1.24562
C          0.98465       -0.27030        0.60883
C          1.90461       -1.15795        0.03745
C          3.07238       -0.68407       -0.55334
C          3.33615        0.68700       -0.58072
C          2.42303        1.57776       -0.02141
C          1.24990        1.09981        0.56483
H         -3.49613       -0.89602       -0.01574
H         -3.27089       -0.24651       -1.66762
H         -0.73712       -0.46651       -1.29102
H         -1.68184       -1.96291       -1.46973
H         -0.02428       -1.42612        2.11521
H         -0.89751        0.03624        1.60852
H          1.69129       -2.22988        0.05410
H          3.78405       -1.38623       -0.99371
H          4.25309        1.05938       -1.04298
H          2.61865        2.65206       -0.04817
H          0.52362        1.80100        0.98383
