23
molCl3004_conf-7
C         -0.99225       -1.41762       -1.30311
Si        -1.30302       -0.08867       -0.00730
C         -3.09726        0.47224       -0.18194
C         -1.03479       -0.74136        1.73690
C         -0.24683        1.46886       -0.30426
C          1.17056        1.61299        0.26425
C          2.26640        0.79505       -0.39918
Cl         2.29539       -0.93907        0.10056
H         -1.64744       -2.28621       -1.12822
H         -1.21391       -1.03175       -2.31141
H          0.05003       -1.76642       -1.28836
H         -3.36136        1.22089        0.58220
H         -3.27994        0.92236       -1.17122
H         -3.78870       -0.37842       -0.07099
H         -1.23844        0.04198        2.48495
H         -1.71014       -1.58641        1.94558
H         -0.00012       -1.08820        1.87601
H         -0.85288        2.29062        0.11713
H         -0.22830        1.66316       -1.39272
H          1.48677        2.66565        0.15444
H          1.18250        1.41060        1.34796
H          2.17048        0.80126       -1.49395
H          3.25716        1.18558       -0.13462
