15
molCl309_clust-4
Cl        -2.07240       -0.57462       -0.45393
C         -1.06498       -0.00705        0.92597
C         -0.37071        1.31163        0.61423
C          0.60872        1.29920       -0.56161
C          1.97987        0.66636       -0.28060
C          1.95923       -0.77249       -0.00557
N          1.94483       -1.90586        0.22048
H         -0.36004       -0.81696        1.14907
H         -1.74383        0.11050        1.78011
H         -1.14722        2.06671        0.41548
H          0.14976        1.63774        1.53232
H          0.13777        0.80341       -1.42443
H          0.80156        2.33875       -0.86639
H          2.64400        0.82137       -1.14503
H          2.46203        1.16214        0.57776
