26
molCl3001_conf-6
C          4.23666       -1.89539       -0.08272
C          3.05089       -0.97152       -0.00743
C          2.29058       -0.86114        1.16081
C          1.20328        0.00878        1.23366
C          0.87239        0.76957        0.11805
S         -0.54088        1.84826        0.17805
O         -1.00088        1.87282        1.55763
O         -0.24385        3.06913       -0.54983
N         -1.65149        1.05235       -0.77619
C         -2.47360       -0.01289       -0.22990
C         -1.90554       -1.37895       -0.59690
Cl        -2.93889       -2.68422        0.06659
C          1.61819        0.68947       -1.05843
C          2.69848       -0.18060       -1.11282
H          4.26760       -2.58460        0.77194
H          4.21689       -2.49282       -1.00613
H          5.17600       -1.32012       -0.08528
H          2.55234       -1.46389        2.03377
H          0.61116        0.10321        2.14544
H         -2.07528        1.70417       -1.42889
H         -2.55124        0.08471        0.86478
H         -3.49289        0.08168       -0.63082
H         -1.86004       -1.50510       -1.68640
H         -0.89624       -1.51290       -0.18580
H          1.35061        1.30839       -1.91685
H          3.28654       -0.24909       -2.03161
