20
molCl995_clust-8
C         -4.47486       -0.00536        0.44043
C         -3.16833       -0.60416       -0.02494
O         -2.15641        0.39788        0.09001
C         -0.91966        0.05140       -0.27307
O         -0.63085       -1.04455       -0.67986
C          0.04067        1.20915       -0.11357
C          1.48643        0.86924       -0.45958
C          2.11578       -0.09389        0.53339
Cl         3.84884       -0.38048        0.15549
H         -5.27722       -0.75292        0.36373
H         -4.40547        0.32192        1.48772
H         -4.75013        0.86247       -0.17587
H         -2.87822       -1.47773        0.57976
H         -3.22119       -0.94196       -1.07184
H         -0.32841        2.02301       -0.75793
H         -0.05556        1.58905        0.91711
H          1.53407        0.42757       -1.46622
H          2.07736        1.79727       -0.48213
H          1.61546       -1.06941        0.50774
H          2.07692        0.30401        1.55733
