21
molCl3002_conf-8
C         -1.53787        2.65869        0.49004
O         -1.27256        1.27773        0.30036
C         -0.27747        0.97456       -0.51894
O          0.37569        1.78017       -1.12596
C         -0.05445       -0.53975       -0.65834
C         -0.76859       -1.40463        0.38373
Cl        -2.51003       -1.59768        0.00312
N          1.36713       -0.80793       -0.69626
C          2.17007       -0.36436        0.32030
C          3.65627       -0.45876        0.06703
O          1.69697        0.09036        1.34252
H         -0.66975        3.15511        0.94624
H         -1.76276        3.14715       -0.46861
H         -2.40319        2.71381        1.15896
H         -0.45785       -0.81005       -1.64654
H         -0.32415       -2.40700        0.37536
H         -0.68011       -0.97224        1.38549
H          1.78660       -1.00898       -1.59329
H          3.98133        0.45648       -0.45119
H          4.17755       -0.51350        1.02961
H          3.92435       -1.32535       -0.55343
