35
molCl3000_conf-5
C         -4.28410        0.47741       -0.97316
C         -3.58691       -0.34407        0.11043
C         -3.84034        0.22062        1.50761
O         -2.16335       -0.41105       -0.15215
C         -1.39261        0.68809       -0.16661
N         -0.09375        0.35329       -0.41534
C          0.90990        1.39651       -0.51621
C          2.02896        1.18537        0.50704
C          2.35809       -0.31329        0.69147
C          1.85834       -1.12694       -0.50402
C          0.33793       -1.02374       -0.62541
C          3.82328       -0.55825        1.02165
Cl         4.93478       -0.11334       -0.32731
O         -1.78678        1.82143        0.01448
C         -4.01883       -1.80557        0.03606
H         -3.96911        1.52697       -0.93153
H         -5.37399        0.42549       -0.83286
H         -4.04619        0.07266       -1.96837
H         -3.52191        1.26823        1.56927
H         -3.29015       -0.36493        2.25967
H         -4.91327        0.15868        1.74258
H          1.32675        1.40328       -1.53823
H          0.40538        2.35717       -0.36496
H          2.92420        1.72628        0.16307
H          1.73842        1.61981        1.47570
H          1.80917       -0.67948        1.57885
H          2.35491       -0.77298       -1.42087
H          2.13196       -2.18786       -0.39500
H         -0.13921       -1.66217        0.13279
H          0.00288       -1.39754       -1.60898
H          4.13675        0.03839        1.88902
H          4.01070       -1.61865        1.23752
H         -3.48948       -2.40347        0.79227
H         -5.10008       -1.89251        0.21583
H         -3.79385       -2.22348       -0.95590
