35
molCl3000_conf-9
C          3.41216       -1.86681       -0.96844
C          3.15309       -0.75395        0.04274
C          2.96216       -1.33516        1.44300
O          1.91234       -0.16965       -0.42738
C          1.33412        0.86510        0.20083
N          0.18263        1.24499       -0.42804
C         -0.41790        0.53156       -1.54016
C         -1.60464       -0.31789       -1.06182
C         -2.31036        0.34654        0.13865
C         -2.14255        1.86869        0.06367
C         -0.66100        2.24874        0.20351
C         -3.77868       -0.02807        0.24662
Cl        -4.02215       -1.80317        0.41193
O          1.76357        1.40600        1.19819
C          4.27510        0.28229        0.00039
H          2.58221       -2.58838       -0.96852
H          4.33971       -2.40091       -0.71689
H          3.51185       -1.45172       -1.98199
H          2.76644       -0.54052        2.17294
H          3.86870       -1.88100        1.74371
H          2.11838       -2.04164        1.44903
H         -0.75452        1.27912       -2.27798
H          0.34301       -0.08220       -2.03050
H         -2.31546       -0.45159       -1.89464
H         -1.26504       -1.32358       -0.77609
H         -1.81458        0.00712        1.06467
H         -2.55328        2.23387       -0.89345
H         -2.71599        2.37088        0.85798
H         -0.37205        2.30199        1.26158
H         -0.47706        3.24689       -0.23215
H         -4.24277        0.43438        1.12803
H         -4.33651        0.28626       -0.64768
H          4.35491        0.71479       -1.00831
H          4.09085        1.08915        0.71979
H          5.23307       -0.20090        0.24344
