14
molCl248_conf-3
Cl         1.89259       -0.66594       -0.19239
C          1.24646        0.95839        0.18817
C         -0.27269        0.98362        0.23810
O         -0.79875        0.12294        1.20912
C         -1.46946       -0.93284        0.55387
C         -1.86133       -0.29285       -0.77289
O         -0.80733        0.61398       -0.99855
H          1.60180        1.65147       -0.58546
H          1.64964        1.25873        1.16348
H         -0.57458        2.01907        0.50340
H         -0.79533       -1.79295        0.40442
H         -2.32945       -1.24249        1.16368
H         -1.90593       -1.00299       -1.60963
H         -2.82933        0.23678       -0.69739
