33
molCl608_clust-9
C         -1.41579        2.07322        0.76051
C         -2.16196        1.05863       -0.12078
C         -2.00214        1.45401       -1.59765
C         -3.65266        1.04892        0.25373
Si        -1.42178       -0.66616        0.14513
C         -2.23760       -1.96503       -0.93778
C         -1.50660       -1.20424        1.94278
O          0.19143       -0.50020       -0.30620
C          1.15500       -1.51641       -0.29277
C          2.52407       -0.92939       -0.60219
C          2.91914        0.13212        0.40766
Cl         4.53571        0.82818        0.04290
H         -0.34001        2.09413        0.52787
H         -1.52569        1.84664        1.83321
H         -1.81441        3.08989        0.59776
H         -2.39272        2.47269       -1.76733
H         -0.94496        1.44169       -1.90393
H         -2.55573        0.77579       -2.26675
H         -4.22949        0.34087       -0.36312
H         -4.09348        2.04934        0.09989
H         -3.81220        0.78233        1.31114
H         -2.14080       -1.71540       -2.00548
H         -3.30997       -2.06036       -0.70524
H         -1.77842       -2.95381       -0.77903
H         -1.06730       -2.20534        2.07829
H         -2.55023       -1.25560        2.29123
H         -0.96324       -0.50525        2.59695
H          1.18367       -2.02023        0.69495
H          0.91893       -2.29557       -1.04214
H          3.27300       -1.73704       -0.60922
H          2.50921       -0.48569       -1.60990
H          2.97177       -0.28095        1.42487
H          2.19953        0.95961        0.40347
