19
molCl425_conf-1
Cl        -3.99286        0.37028        0.00002
C         -2.55899       -0.69945        0.00000
C         -1.29129        0.13267       -0.00002
O         -0.21974       -0.77246       -0.00003
C          1.04946       -0.30034       -0.00002
C          1.38127        1.05798       -0.00002
C          2.72652        1.43633       -0.00000
C          3.73855        0.48261        0.00002
C          3.39732       -0.87296        0.00002
C          2.06563       -1.26554        0.00000
H         -2.60632       -1.33502        0.89313
H         -2.60634       -1.33502       -0.89312
H         -1.26759        0.78226        0.89359
H         -1.26762        0.78226       -0.89362
H          0.60931        1.82774       -0.00003
H          2.97705        2.49958       -0.00000
H          4.78611        0.78881        0.00003
H          4.18042       -1.63450        0.00003
H          1.78070       -2.31896        0.00000
