16
molCl234_conf-8
Cl         1.92882       -0.62204       -0.30295
C          1.26603        0.94644        0.27264
C         -0.24468        0.94310        0.43480
C         -0.82609       -0.21383        1.27686
C         -1.49650       -1.10339        0.22704
C         -1.89718       -0.07819       -0.82734
O         -0.85406        0.87004       -0.83518
H          1.55489        1.70370       -0.46713
H          1.75525        1.17013        1.23015
H         -0.49011        1.91714        0.90352
H         -0.05128       -0.74073        1.85107
H         -1.56923        0.17582        1.98861
H         -2.34916       -1.67386        0.62096
H         -0.76568       -1.80808       -0.19475
H         -2.86110        0.40297       -0.56549
H         -1.99056       -0.49741       -1.83942
