35
molCl3000_conf-8
C          4.01883       -1.80558        0.03608
C          3.58692       -0.34407        0.11041
C          3.84038        0.22065        1.50758
O          2.16335       -0.41106       -0.15213
C          1.39261        0.68809       -0.16659
N          0.09375        0.35329       -0.41530
C         -0.33793       -1.02374       -0.62535
C         -1.85834       -1.12694       -0.50399
C         -2.35811       -0.31329        0.69149
C         -2.02897        1.18537        0.50705
C         -0.90990        1.39650       -0.51618
C         -3.82330       -0.55824        1.02164
Cl        -4.93478       -0.11334       -0.32736
O          1.78679        1.82143        0.01446
C          4.28409        0.47738       -0.97321
H          5.10009       -1.89251        0.21582
H          3.79383       -2.22350       -0.95586
H          3.48949       -2.40345        0.79231
H          4.91332        0.15872        1.74252
H          3.29021       -0.36487        2.25966
H          3.52196        1.26827        1.56922
H         -0.00286       -1.39756       -1.60890
H          0.13919       -1.66217        0.13288
H         -2.35489       -0.77299       -1.42085
H         -2.13196       -2.18786       -0.39497
H         -1.80921       -0.67947        1.57888
H         -2.92421        1.72628        0.16308
H         -1.73843        1.61981        1.47572
H         -0.40538        2.35716       -0.36493
H         -1.32675        1.40328       -1.53820
H         -4.01074       -1.61864        1.23751
H         -4.13680        0.03841        1.88899
H          4.04615        0.07260       -1.96840
H          3.96911        1.52694       -0.93160
H          5.37398        0.42545       -0.83293
