19
molCl238_conf-4
Cl         2.69171        0.18307       -0.18886
C          1.14877       -0.71428       -0.41589
C          0.15317       -0.46343        0.71481
C         -0.27885        1.00547        0.83894
C         -1.24604        1.40494       -0.27008
O         -2.36701        0.55770       -0.31640
C         -2.02496       -0.78115       -0.55614
C         -1.10252       -1.33452        0.52850
H          1.41380       -1.77881       -0.46538
H          0.75904       -0.41269       -1.39714
H          0.65515       -0.76349        1.64872
H          0.60071        1.66668        0.83393
H         -0.78582        1.14189        1.80759
H         -0.72965        1.40726       -1.25328
H         -1.62556        2.42300       -0.10439
H         -1.55167       -0.88112       -1.55604
H         -2.96553       -1.34944       -0.58765
H         -0.83207       -2.37762        0.29536
H         -1.65892       -1.35167        1.47926
