19
molCl1233_conf-2
C         -2.73034       -0.28891       -0.28799
O         -1.44016       -0.27941       -0.84282
C         -0.36187       -0.28365        0.06191
C         -0.40809       -1.44884        1.03993
C          0.83946       -0.37976       -0.89514
Cl         2.40975       -0.19008       -0.06394
O         -0.35436        0.86998        0.84835
C         -0.20445        2.09989        0.18552
H         -2.82780        0.45184        0.52309
H         -3.00694       -1.28331        0.10410
H         -3.42881       -0.02791       -1.09389
H          0.54106       -1.50362        1.58805
H         -1.21394       -1.29869        1.77018
H         -0.57222       -2.39249        0.50086
H          0.76574        0.39924       -1.66319
H          0.83054       -1.35731       -1.39131
H         -0.87203        2.17678       -0.68921
H         -0.47219        2.88515        0.90434
H          0.83876        2.26490       -0.13570
