12
molCl295_conf-6
Cl        -2.41534       -0.28570       -0.09849
C         -0.71091       -0.19678        0.44891
C          0.05183        0.87479       -0.31199
C          1.50516        1.01032        0.16415
C          2.28658       -0.21572       -0.01708
N          2.87577       -1.19917       -0.16140
H         -0.26837       -1.19069        0.29572
H         -0.72826        0.01303        1.52751
H          0.03045        0.64493       -1.38796
H         -0.44883        1.84535       -0.17915
H          2.00678        1.81977       -0.38710
H          1.54265        1.28299        1.23118
