19
molCl425_conf-12
Cl         2.57103        1.09263       -0.50126
C          2.71674       -0.59608        0.08712
C          1.48848       -1.09379        0.82054
O          0.40552       -1.31966       -0.04232
C         -0.72474       -0.56698        0.01395
C         -1.88538       -1.17389       -0.48044
C         -3.09027       -0.48054       -0.48029
C         -3.15796        0.82097        0.02060
C         -2.00009        1.42116        0.50774
C         -0.78124        0.74119        0.50359
H          2.91007       -1.22603       -0.79065
H          3.58867       -0.63287        0.75394
H          1.75454       -2.06889        1.26488
H          1.22153       -0.41805        1.64870
H         -1.81507       -2.19490       -0.85937
H         -3.98833       -0.96554       -0.86964
H         -4.10508        1.36356        0.02440
H         -2.03324        2.44456        0.88839
H          0.12197        1.24857        0.84242
