38
molCl921_clust-35
C          5.75844       -1.46567        0.07963
C          5.82067        0.05580        0.17394
C          4.61728        0.80675       -0.40464
C          3.26324        0.48289        0.24610
C          2.47051       -0.62294       -0.45343
C          1.21254       -1.06736        0.29654
C          0.20312        0.03816        0.61858
C         -0.32442        0.78247       -0.60591
C         -1.32441        1.89676       -0.28619
C         -2.57514        1.46487        0.48424
C         -3.37640        0.36166       -0.20586
C         -4.66194        0.04627        0.53572
Cl        -5.58756       -1.27448       -0.26006
H          5.61044       -1.79769       -0.96066
H          6.69073       -1.92130        0.44593
H          4.93518       -1.87909        0.68257
H          6.73044        0.41052       -0.33898
H          5.94181        0.34578        1.23258
H          4.81916        1.88539       -0.30472
H          4.55234        0.61594       -1.49117
H          2.64671        1.39664        0.26612
H          3.41938        0.21080        1.30662
H          2.20411       -0.27957       -1.46850
H          3.11251       -1.50442       -0.60541
H          0.70657       -1.85014       -0.29471
H          1.51523       -1.55098        1.24157
H         -0.63953       -0.41904        1.16390
H          0.64939        0.76526        1.32012
H         -0.77700        0.05641       -1.30442
H          0.51899        1.23180       -1.15565
H         -0.81132        2.68236        0.29457
H         -1.63615        2.37312       -1.23145
H         -2.29578        1.13236        1.49908
H         -3.22038        2.34859        0.62726
H         -2.77781       -0.56041       -0.27892
H         -3.61860        0.66018       -1.23949
H         -4.46060       -0.28338        1.56440
H         -5.32821        0.91894        0.57797
