19
molCl467_clust-5
C         -3.61183       -0.69277       -0.61303
C         -2.37861       -0.26523        0.15042
O         -1.96728       -0.88840        1.09915
C         -1.68896        0.99916       -0.34031
C         -0.31354        1.23399        0.27043
C          0.74660        0.26557       -0.25428
C          2.09561        0.49941        0.39963
Cl         3.35230       -0.61146       -0.24737
H         -3.30236       -1.11382       -1.58327
H         -4.26846        0.16395       -0.82601
H         -4.15518       -1.45993       -0.04809
H         -2.37013        1.83385       -0.09503
H         -1.64477        0.97753       -1.44333
H         -0.00078        2.27112        0.06551
H         -0.39521        1.13191        1.36433
H          0.43225       -0.77151       -0.06176
H          0.85241        0.37692       -1.34633
H          2.04791        0.32885        1.48374
H          2.45779        1.52226        0.22532
