19
molCl1233_conf-11
C         -0.23115        2.27675       -0.19700
O          0.02176        1.26145        0.74049
C          0.42137        0.02450        0.26288
C          0.56230       -0.86043        1.49170
C         -0.55857       -0.55472       -0.77947
Cl        -2.23759       -0.68877       -0.17618
O          1.63870        0.21994       -0.43538
C          2.52796       -0.84785       -0.58946
H         -1.19110        2.12058       -0.72096
H         -0.29960        3.21583        0.36693
H          0.58297        2.36502       -0.93364
H          0.84928       -1.88792        1.22973
H          1.31690       -0.42513        2.16085
H         -0.40022       -0.88941        2.01658
H         -0.23812       -1.55984       -1.08208
H         -0.57161        0.08602       -1.66927
H          2.99530       -1.15072        0.36383
H          2.05765       -1.74032       -1.04331
H          3.32228       -0.50575       -1.26636
