35
molCl3000_conf-4
C          4.15647       -0.13900        1.34325
C          3.62662       -0.49754       -0.04441
C          4.19142        0.42080       -1.12730
O          2.17806       -0.44958       -0.05602
C          1.50338        0.68099        0.20350
N          0.15874        0.45535        0.15550
C         -0.74775        1.58113        0.31257
C         -1.86195        1.50189       -0.72419
C         -2.68688        0.19574       -0.59865
C         -1.88893       -0.87590        0.16145
C         -0.40663       -0.84697       -0.18246
C         -4.02461        0.49175        0.06516
Cl        -5.06598       -0.96753        0.21299
O          2.00601        1.75883        0.44537
C          3.92412       -1.95796       -0.37097
H          3.69463       -0.78525        2.10485
H          3.94088        0.90817        1.58716
H          5.24489       -0.29577        1.37474
H          5.28238        0.29322       -1.18868
H          3.96741        1.47096       -0.90461
H          3.76003        0.16335       -2.10639
H         -1.17208        1.60200        1.33334
H         -0.15895        2.49896        0.19593
H         -2.51132        2.38715       -0.63155
H         -1.40575        1.55733       -1.72444
H         -2.89857       -0.18341       -1.61186
H         -2.00453       -0.72435        1.24825
H         -2.29615       -1.87347       -0.05261
H         -0.26087       -1.06732       -1.25649
H          0.12696       -1.63016        0.37231
H         -3.88202        0.88503        1.08289
H         -4.59841        1.22616       -0.51548
H          5.01007       -2.12784       -0.39971
H          3.48655       -2.62044        0.39001
H          3.50134       -2.22755       -1.34966
