21
molCl229_conf-6
Cl        -1.97489        0.89998        0.00013
C         -1.58295       -0.86473       -0.00011
C         -0.10623       -1.25202       -0.00017
C          0.67085       -0.86266        1.27111
C          1.22756        0.56416        1.26195
C          2.04806        0.83217        0.00011
C          1.22753        0.56452       -1.26179
C          0.67083       -0.86230       -1.27135
H         -2.07967       -1.27279        0.89064
H         -2.07969       -1.27256       -0.89096
H         -0.17404       -2.35594       -0.00033
H          0.03872       -1.02445        2.15978
H          1.51994       -1.56211        1.36707
H          1.84702        0.71747        2.15999
H          0.40014        1.28761        1.31947
H          2.94051        0.17923        0.00000
H          2.42049        1.86859        0.00025
H          0.40011        1.28798       -1.31909
H          1.84698        0.71809       -2.15981
H          1.51992       -1.56172       -1.36752
H          0.03869       -1.02385       -2.16006
