22
molCl372_clust-1
Cl         2.68420        1.39825       -0.07616
C          2.25811       -0.00898        0.97021
C          2.23071       -1.30757        0.18518
C          1.09338       -1.44854       -0.81712
O         -0.14711       -1.62908       -0.16775
C         -1.09415       -0.66117       -0.11724
C         -2.36869       -1.08523        0.28469
C         -3.40986       -0.17177        0.39032
C         -3.20282        1.17752        0.09343
C         -1.93633        1.59463       -0.30359
C         -0.87761        0.68956       -0.40971
H          1.28365        0.21593        1.42489
H          3.01692       -0.04070        1.76169
H          3.19023       -1.43411       -0.34104
H          2.14805       -2.13535        0.90901
H          1.06902       -0.59578       -1.51394
H          1.25976       -2.35594       -1.41753
H         -2.51418       -2.14372        0.50712
H         -4.39708       -0.51858        0.70433
H         -4.02179        1.89451        0.17443
H         -1.75300        2.64717       -0.53156
H          0.10742        1.05831       -0.69778
