19
molCl238_conf-3
Cl         2.51127        0.00000       -0.62764
C          1.63392       -0.00001        0.94793
C          0.11937       -0.00000        0.79812
C         -0.42588       -1.25102        0.10308
C         -1.94243       -1.16766       -0.03783
O         -2.34302        0.00000       -0.70452
C         -1.94243        1.16767       -0.03783
C         -0.42588        1.25102        0.10309
H          1.97565        0.89263        1.48952
H          1.97565       -0.89264        1.48951
H         -0.26350       -0.00001        1.83843
H          0.02683       -1.33480       -0.89796
H         -0.15233       -2.15918        0.66546
H         -2.32868       -2.01555       -0.62106
H         -2.41348       -1.21153        0.96810
H         -2.32868        2.01556       -0.62105
H         -2.41348        1.21153        0.96810
H          0.02683        1.33480       -0.89796
H         -0.15233        2.15917        0.66547
