38
molCl921_clust-16
C          4.28196        3.37764       -0.18277
C          3.64841        2.18295        0.52128
C          3.57407        0.93327       -0.35253
C          2.93610       -0.26471        0.34375
C          2.88214       -1.51882       -0.52943
C          2.18082       -2.72553        0.11327
C          0.68681       -2.85956       -0.19449
C         -0.18800       -1.68723        0.24262
C         -1.67665       -1.92415       -0.00349
C         -2.59191       -0.80698        0.49719
C         -2.36330        0.54133       -0.18227
C         -3.33668        1.62746        0.23915
Cl        -5.03443        1.26196       -0.24549
H          4.31998        4.26078        0.47230
H          5.31265        3.15157       -0.49918
H          3.71380        3.65470       -1.08508
H          2.63108        2.44869        0.85838
H          4.21660        1.94952        1.43851
H          3.00582        1.16521       -1.27175
H          4.59096        0.66245       -0.69015
H          1.92239        0.01067        0.67887
H          3.50038       -0.49510        1.26519
H          2.39087       -1.27808       -1.49008
H          3.91771       -1.79394       -0.79138
H          2.67357       -3.65161       -0.22339
H          2.32860       -2.69111        1.20759
H          0.55781       -3.01189       -1.28142
H          0.31075       -3.78120        0.28299
H          0.13101       -0.77789       -0.29334
H         -0.02291       -1.48383        1.31679
H         -1.84601       -2.07666       -1.08465
H         -1.97435       -2.86857        0.48299
H         -3.64125       -1.10311        0.34157
H         -2.46373       -0.68762        1.58832
H         -2.40800        0.42293       -1.27827
H         -1.35233        0.91914        0.04922
H         -3.08651        2.59003       -0.22485
H         -3.34619        1.75740        1.33037
