38
molCl921_clust-3
C         -3.56664       -2.15246        1.34692
C         -2.48545       -1.80284        0.33101
C         -2.63140       -0.40108       -0.25545
C         -1.55757       -0.06670       -1.28753
C         -1.58449        1.37318       -1.80104
C         -1.28063        2.46818       -0.77015
C          0.07718        2.32683       -0.06244
C          0.01284        1.63290        1.30003
C          1.37256        1.43896        1.97733
C          2.34889        0.54042        1.21424
C          1.88260       -0.90839        1.07866
C          2.67587       -1.72427        0.07504
Cl         2.42716       -1.13638       -1.61359
H         -3.42953       -3.16545        1.75405
H         -3.55854       -1.44748        2.19358
H         -4.56862       -2.10818        0.89127
H         -2.48996       -2.54254       -0.48836
H         -1.49128       -1.88923        0.80531
H         -3.62891       -0.29620       -0.71909
H         -2.60967        0.33223        0.56939
H         -1.66722       -0.75023       -2.14672
H         -0.55797       -0.28990       -0.87652
H         -0.85054        1.46002       -2.62051
H         -2.57044        1.57690       -2.25453
H         -1.31745        3.43474       -1.29745
H         -2.08567        2.51755       -0.01614
H          0.76889        1.78479       -0.73013
H          0.52655        3.32357        0.08556
H         -0.49390        0.65982        1.20050
H         -0.63273        2.22836        1.96806
H          1.84362        2.42603        2.12356
H          1.21322        1.02561        2.98846
H          2.52440        0.95434        0.20886
H          3.32893        0.55432        1.72054
H          0.82052       -0.95202        0.79093
H          1.95594       -1.41784        2.05566
H          2.36925       -2.77786        0.07942
H          3.75685       -1.67119        0.26565
