19
molCl467_clust-1
C          2.47208       -0.94647       -0.34674
C          1.54781        0.10360        0.22047
O          1.36536        0.21878        1.40999
C          0.88039        1.02611       -0.78965
C         -0.26404        1.86047       -0.22063
C         -1.63744        1.18473       -0.16435
C         -1.74285       -0.09947        0.64590
Cl        -1.18426       -1.55717       -0.27046
H          3.10300       -1.36258        0.44809
H          3.09142       -0.54330       -1.16155
H          1.84828       -1.75026       -0.76836
H          1.68686        1.69035       -1.15070
H          0.57006        0.43532       -1.66704
H          0.02405        2.18132        0.79297
H         -0.37151        2.77596       -0.82260
H         -2.34327        1.90084        0.28987
H         -2.01521        0.99112       -1.18215
H         -2.78564       -0.31271        0.91092
H         -1.13423       -0.05811        1.55834
