38
molCl921_clust-30
C         -6.72553        2.17991       -0.08326
C         -6.06681        0.85124        0.27062
C         -4.60307        0.76832       -0.15539
C         -3.93508       -0.55766        0.19621
C         -2.47326       -0.64068       -0.23427
C         -1.80768       -1.96574        0.13222
C         -0.37302       -2.12227       -0.37327
C          0.62252       -1.12271        0.21199
C          2.05957       -1.36420       -0.24100
C          3.05223       -0.35447        0.32672
C          4.48635       -0.59832       -0.13175
C          5.50134        0.38989        0.41346
Cl         5.21019        2.06991       -0.17218
H         -7.77812        2.20800        0.23578
H         -6.20667        3.02230        0.40133
H         -6.70062        2.35895       -1.17000
H         -6.62711        0.02368       -0.19842
H         -6.13646        0.68184        1.35932
H         -4.53070        0.93552       -1.24538
H         -4.03996        1.59605        0.31259
H         -4.50040       -1.38569       -0.26824
H         -4.00331       -0.72271        1.28665
H         -2.40470       -0.48945       -1.32701
H         -1.91939        0.19811        0.22148
H         -1.82289       -2.08754        1.23048
H         -2.41839       -2.79224       -0.27020
H         -0.02470       -3.14452       -0.14553
H         -0.36382       -2.03939       -1.47518
H          0.57450       -1.16492        1.31538
H          0.33171       -0.09462       -0.06364
H          2.36695       -2.38632        0.04546
H          2.10259       -1.33541       -1.34456
H          2.75021        0.66473        0.03413
H          3.01290       -0.38027        1.43064
H          4.53580       -0.59298       -1.23350
H          4.81195       -1.60432        0.18839
H          5.47119        0.43403        1.51111
H          6.52085        0.12874        0.10222
