19
molCl1233_conf-5
C          0.08699        2.02226       -0.50112
O         -0.68701        0.93613       -0.95313
C         -0.48715       -0.31923       -0.36448
C         -1.47107       -1.24293       -1.08499
C          0.92862       -0.88252       -0.58287
Cl         2.20825       -0.21643        0.47690
O         -0.68885       -0.28682        1.01666
C         -1.96654        0.08687        1.46205
H          0.16143        2.04103        0.59785
H          1.10837        2.00434       -0.91607
H         -0.41896        2.93428       -0.84604
H         -1.51714       -2.22031       -0.58509
H         -2.46997       -0.78787       -1.09208
H         -1.16372       -1.38364       -2.13035
H          1.22608       -0.69691       -1.62289
H          0.91497       -1.96371       -0.39976
H         -1.87874        0.31109        2.53311
H         -2.33546        0.98429        0.93802
H         -2.70531       -0.72456        1.33624
