19
molCl425_conf-11
Cl        -2.57166        1.09241       -0.50072
C         -2.71680       -0.59645        0.08744
C         -1.48807       -1.09395        0.82024
O         -0.40546       -1.31934       -0.04318
C          0.72495       -0.56686        0.01357
C          0.78110        0.74160        0.50247
C          1.99992        1.42159        0.50697
C          3.15810        0.82110        0.02090
C          3.09075       -0.48064       -0.47938
C          1.88585       -1.17403       -0.47984
H         -3.58846       -0.63355        0.75460
H         -2.91036       -1.22630       -0.79035
H         -1.22092       -0.41823        1.64836
H         -1.75365       -2.06919        1.26457
H         -0.12237        1.24907        0.84048
H          2.03284        2.44521        0.88706
H          4.10522        1.36371        0.02496
H          3.98905       -0.96582       -0.86794
H          1.81578       -2.19523       -0.85826
