29
molCl542_conf-1
C         -3.21089       -2.04492       -0.15892
C         -3.01300       -0.54419        0.02955
C         -3.50911       -0.10357        1.40603
C         -3.69024        0.23463       -1.09740
O         -1.57356       -0.38964       -0.05326
C         -0.98258        0.80697        0.07307
O         -1.53080        1.87337        0.24523
N          0.36365        0.66395       -0.01575
C          1.36621        1.69835       -0.16717
C          2.38244        0.58517       -0.54905
C          3.48592        0.38276        0.46362
Cl         4.42859       -1.10595        0.11157
C          1.21033       -0.42733       -0.46824
H         -4.28053       -2.29593       -0.11589
H         -2.81447       -2.36651       -1.13293
H         -2.68725       -2.60437        0.62971
H         -4.58172       -0.32823        1.50204
H         -2.97175       -0.64907        2.19625
H         -3.35773        0.97314        1.55097
H         -4.76971        0.02267       -1.09699
H         -3.28060       -0.07276       -2.07141
H         -3.53999        1.31396       -0.97267
H          1.58949        2.25709        0.75733
H          1.14322        2.42236       -0.96761
H          2.80848        0.69376       -1.55551
H          3.07554        0.27228        1.47748
H          4.19282        1.22337        0.45934
H          0.90196       -0.86228       -1.43209
H          1.34116       -1.24310        0.26083
