15
molCl3003_conf-3
C          3.28057       -0.19608        0.36388
C          1.88374        0.19643       -0.07162
O          1.57485        1.34901       -0.29689
N          0.98755       -0.82806       -0.19103
C         -0.37968       -0.58699       -0.59282
C         -1.22767       -0.06974        0.56402
Cl        -2.92776        0.16110        0.04338
H          3.44163       -1.28117        0.42395
H          3.99893        0.23899       -0.34376
H          3.47989        0.25219        1.34769
H          1.27280       -1.76828        0.04295
H         -0.38740        0.15876       -1.40106
H         -0.80827       -1.52017       -0.98535
H         -0.84691        0.90089        0.90571
H         -1.23199       -0.77735        1.40408
