38
molCl921_clust-9
C          2.01365        2.99033       -0.86253
C          2.92668        1.82482       -0.49841
C          2.48193        1.10053        0.77101
C          3.32393       -0.12693        1.14033
C          3.27962       -1.31860        0.17187
C          2.11425       -2.29881        0.35852
C          0.69724       -1.73387        0.23261
C          0.38686       -1.08737       -1.11771
C         -0.92895       -0.30970       -1.14616
C         -2.16695       -1.15492       -0.85410
C         -3.49188       -0.41295       -1.02924
C         -3.63291        0.86716       -0.22243
Cl        -3.40997        0.59751        1.54633
H          2.35795        3.50942       -1.76945
H          0.98512        2.63977       -1.04705
H          1.96786        3.73126       -0.04858
H          3.96246        2.18424       -0.36866
H          2.96012        1.11768       -1.34460
H          2.52054        1.81474        1.61167
H          1.42011        0.82573        0.67029
H          3.02798       -0.47623        2.14505
H          4.37182        0.20528        1.23947
H          3.30852       -0.95832       -0.87005
H          4.20904       -1.89785        0.29570
H          2.23505       -3.11781       -0.37227
H          2.21065       -2.76835        1.35280
H         -0.01558       -2.55420        0.41801
H          0.51260       -1.00336        1.03907
H          0.37982       -1.86542       -1.90222
H          1.19752       -0.39365       -1.39183
H         -0.86249        0.50768       -0.40561
H         -1.04123        0.17497       -2.13235
H         -2.17179       -2.03776       -1.51601
H         -2.11618       -1.54123        0.17617
H         -4.32647       -1.08753       -0.77986
H         -3.62449       -0.12929       -2.08899
H         -2.88846        1.61954       -0.51447
H         -4.63168        1.30483       -0.34640
