20
molCl995_clust-6
C         -3.27310       -1.98311        0.13351
C         -3.04718       -0.51728       -0.15373
O         -1.70032       -0.20013        0.19899
C         -1.29965        1.05821       -0.01167
O         -2.01308        1.91216       -0.46679
C          0.13718        1.26414        0.41208
C          1.09363        0.18063       -0.08801
C          2.51752        0.44953        0.36383
Cl         3.64567       -0.82013       -0.21909
H         -3.11320       -2.20335        1.19875
H         -4.30455       -2.26088       -0.12629
H         -2.58728       -2.60834       -0.45605
H         -3.20522       -0.27731       -1.21676
H         -3.72949        0.12497        0.42513
H          0.43156        2.26172        0.05731
H          0.14885        1.29259        1.51548
H          0.76861       -0.80180        0.28331
H          1.06703        0.13143       -1.18805
H          2.59407        0.46565        1.45995
H          2.88999        1.40850       -0.02184
