12
molCl295_conf-4
Cl        -2.16985       -0.59842       -0.12234
C         -1.27935        0.93624        0.17569
C          0.16944        0.85631       -0.26956
C          0.97511       -0.20395        0.48980
C          2.37285       -0.25760        0.06295
N          3.47413       -0.28271       -0.28558
H         -1.36249        1.14548        1.25120
H         -1.81180        1.72209       -0.37430
H          0.21319        0.65167       -1.35017
H          0.62333        1.84860       -0.11377
H          0.95359       -0.00486        1.57347
H          0.52444       -1.19697        0.33907
