20
molCl910_clust-9
C         -3.90384       -0.89058       -0.10959
C         -2.95074        0.26316        0.18091
C         -1.49742       -0.05036       -0.16713
C         -0.54200        1.10312        0.13509
C          0.90384        0.87751       -0.31328
C          1.58098       -0.27395        0.41033
Cl         3.30503       -0.43956       -0.07540
H         -4.94134       -0.63225        0.14922
H         -3.88359       -1.16406       -1.17648
H         -3.62947       -1.78846        0.46670
H         -3.01511        0.53748        1.24829
H         -3.27092        1.15874       -0.37943
H         -1.18850       -0.95566        0.38468
H         -1.42576       -0.31082       -1.23880
H         -0.91637        2.01441       -0.36072
H         -0.56247        1.32170        1.21793
H          1.49122        1.79236       -0.13804
H          0.93704        0.68663       -1.39877
H          1.57024       -0.12289        1.49900
H          1.10469       -1.23811        0.19032
