18
molCl267_conf-6
Cl         2.65886       -0.64374       -0.58769
C          2.13255        0.49006        0.70748
C          0.90479        1.29286        0.32511
C         -0.40394        0.54536        0.16603
C         -1.51963        1.25039       -0.30528
C         -2.75857        0.63162       -0.44105
C         -2.90652       -0.71543       -0.10891
C         -1.80488       -1.42904        0.35442
C         -0.56397       -0.80466        0.49070
H          1.96678       -0.11038        1.61211
H          2.98125        1.16009        0.89284
H          1.11957        1.84776       -0.60247
H          0.77295        2.05846        1.11069
H         -1.41225        2.30646       -0.56965
H         -3.61344        1.20279       -0.81011
H         -3.87615       -1.20629       -0.21634
H         -1.90533       -2.48640        0.60946
H          0.28700       -1.39581        0.83314
