20
molCl995_clust-9
C         -3.49141        0.83183       -0.56999
C         -2.50760        0.14588        0.34876
O         -1.42571       -0.33787       -0.44601
C         -0.43023       -0.93977        0.20616
O         -0.43220       -1.13715        1.39307
C          0.67299       -1.38802       -0.72942
C          2.06770       -1.09709       -0.17553
C          2.56890        0.31285       -0.43455
Cl         1.51539        1.58634        0.28091
H         -3.88093        0.13102       -1.32248
H         -4.33902        1.22181        0.01155
H         -3.01390        1.67230       -1.09374
H         -2.96662       -0.69815        0.88752
H         -2.10702        0.83449        1.10909
H          0.54715       -2.47721       -0.83963
H          0.52299       -0.94144       -1.72264
H          2.07319       -1.31137        0.90432
H          2.79785       -1.77783       -0.64293
H          2.61783        0.52596       -1.51142
H          3.56795        0.45868       -0.00420
