15
molCl3003_conf-1
C          2.59115       -1.19846       -0.06666
C          1.72692        0.04460       -0.03073
O          2.00685        1.05395       -0.64581
N          0.59767       -0.05330        0.73498
C         -0.39700        0.98960        0.73466
C         -1.43870        0.83348       -0.36113
Cl        -2.35283       -0.70794       -0.17894
H          3.63952       -0.89395       -0.17075
H          2.47377       -1.82858        0.82592
H          2.32287       -1.79283       -0.95341
H          0.32667       -0.95968        1.09322
H         -0.88793        1.02774        1.71881
H          0.12476        1.94423        0.57192
H         -0.96254        0.81422       -1.34983
H         -2.17159        1.65000       -0.32923
