12
molCl2074_clust-4
O         -1.55541       -1.20481       -0.14345
C         -1.65911        0.11528        0.30433
C         -0.67983        1.08129       -0.36700
C          0.73748        1.06456        0.17533
Cl         1.55976       -0.53769       -0.01333
H         -0.64555       -1.49331       -0.01150
H         -1.54418        0.19188        1.40671
H         -2.68554        0.44032        0.07595
H         -0.67478        0.88403       -1.45085
H         -1.04696        2.11329       -0.22965
H          1.37585        1.79037       -0.34397
H          0.75725        1.28585        1.25152
