38
molCl921_clust-12
C         -3.52851        2.90898       -0.79882
C         -3.12980        1.77755        0.14204
C         -4.12086        0.61518        0.13612
C         -3.80970       -0.49311        1.14577
C         -2.42283       -1.12830        1.01657
C         -2.13904       -1.74300       -0.35233
C         -0.81402       -2.50528       -0.43630
C          0.43657       -1.69580       -0.08035
C          0.63163       -0.43665       -0.92393
C          1.88315        0.37066       -0.57728
C          3.19872       -0.34233       -0.88052
C          4.43806        0.48868       -0.60154
Cl         4.62745        0.87228        1.14987
H         -3.60557        2.55124       -1.83805
H         -4.50800        3.33065       -0.52231
H         -2.79468        3.72857       -0.78130
H         -3.03088        2.16554        1.17117
H         -2.12733        1.41158       -0.13806
H         -5.13162        1.00620        0.34545
H         -4.17443        0.19250       -0.88275
H         -4.57644       -1.28152        1.05159
H         -3.91676       -0.08630        2.16618
H         -1.65205       -0.37481        1.25234
H         -2.31702       -1.90924        1.78969
H         -2.96052       -2.43244       -0.61422
H         -2.15951       -0.95541       -1.12473
H         -0.86307       -3.38418        0.22945
H         -0.70127       -2.90570       -1.45874
H          1.31255       -2.35631       -0.18837
H          0.41118       -1.41104        0.98604
H          0.65055       -0.71197       -1.99449
H         -0.24358        0.22194       -0.79927
H          1.86155        0.64190        0.49138
H          1.86225        1.32315       -1.13460
H          3.22929       -0.61972       -1.94973
H          3.27189       -1.28331       -0.31237
H          4.40545        1.45243       -1.12880
H          5.35113       -0.04219       -0.89988
