29
molCl542_conf-8
C         -3.69430       -0.55193       -1.11578
C         -3.18269        0.21690        0.10181
C         -3.52427       -0.49428        1.41041
C         -3.72701        1.64192        0.10591
O         -1.74944        0.41267        0.00076
C         -0.89572       -0.62215       -0.02526
O         -1.18068       -1.79823        0.01493
N          0.37792       -0.16080       -0.10041
C          0.92509        1.14499       -0.41668
C          2.30233        0.45713       -0.63138
C          3.34946        0.83953        0.38931
Cl         4.80099       -0.21059        0.25868
C          1.59366       -0.90084       -0.38458
H         -3.39492       -0.03934       -2.04242
H         -3.29576       -1.57376       -1.12964
H         -4.79307       -0.59856       -1.08925
H         -3.12439       -1.51562        1.41645
H         -3.10434        0.05830        2.26430
H         -4.61655       -0.53843        1.53337
H         -3.32435        2.20544        0.96005
H         -4.82398        1.63000        0.17979
H         -3.44409        2.16530       -0.81898
H          0.87574        1.87413        0.40970
H          0.49155        1.60762       -1.31803
H          2.70539        0.57090       -1.64673
H          2.96195        0.72834        1.41209
H          3.68516        1.87610        0.25021
H          1.51788       -1.55836       -1.26511
H          1.98311       -1.48959        0.46140
