35
molCl3000_conf-10
C          4.32917        0.76208       -0.21570
C          3.45258       -0.35083        0.35687
C          3.98229       -1.71925       -0.06167
O          2.13531       -0.31290       -0.24694
C          1.32929        0.75377       -0.12033
N          0.15147        0.57117       -0.78429
C         -0.21902       -0.63604       -1.49653
C         -1.35024       -1.37404       -0.76604
C         -2.30016       -0.37945       -0.06095
C         -2.27051        0.97125       -0.77704
C         -0.87742        1.59790       -0.66965
C         -3.69114       -0.98408        0.04416
Cl        -4.80320       -0.00027        1.05941
O          1.59447        1.76002        0.50282
C          3.33703       -0.26319        1.87808
H          5.35759        0.65185        0.15904
H          3.94841        1.74876        0.07422
H          4.35522        0.69809       -1.31396
H          3.32672       -2.51808        0.31477
H          4.99228       -1.87643        0.34347
H          4.02974       -1.79610       -1.15775
H         -0.54521       -0.35437       -2.51220
H          0.66403       -1.27158       -1.60816
H         -1.90597       -1.98446       -1.49850
H         -0.93161       -2.07147       -0.02428
H         -1.93250       -0.21659        0.96649
H         -2.56116        0.83033       -1.83276
H         -3.00963        1.65619       -0.33825
H         -0.75034        2.08895        0.30512
H         -0.74139        2.37843       -1.43924
H         -4.16081       -1.07376       -0.94626
H         -3.65014       -1.98210        0.50134
H          2.94920        0.71529        2.18562
H          2.66343       -1.04827        2.25361
H          4.32698       -0.41400        2.33357
