21
molCl3002_conf-5
C          3.46064        0.46916        0.48606
O          2.10242        0.81856        0.26190
C          1.40114       -0.01402       -0.50491
O          1.85954       -0.97505       -1.05464
C         -0.05509        0.44617       -0.67254
C         -0.48499        1.47474        0.37295
Cl        -2.14758        2.05874        0.02751
N         -0.91777       -0.70559       -0.72479
C         -0.91967       -1.61476        0.29212
C         -1.81971       -2.81274        0.09880
O         -0.20775       -1.47013        1.26805
H          4.01177        0.41813       -0.46363
H          3.87679        1.25348        1.12739
H          3.52490       -0.50719        0.98630
H         -0.09393        0.92780       -1.66304
H         -0.48390        1.02595        1.37256
H          0.18091        2.34348        0.36041
H         -1.52883       -0.82693       -1.51826
H         -2.72805       -2.57256       -0.47139
H         -1.26069       -3.58954       -0.44468
H         -2.09339       -3.21052        1.08282
