19
molCl425_conf-2
Cl        -3.38280       -0.56561       -0.59508
C         -2.71860        0.55729        0.63187
C         -1.29274        0.95395        0.33196
O         -0.47269       -0.17055        0.47936
C          0.84922       -0.06912        0.21072
C          1.48712        1.11496       -0.17236
C          2.86257        1.10609       -0.42091
C          3.60546       -0.06197       -0.29207
C          2.95970       -1.24125        0.09170
C          1.59437       -1.24931        0.34142
H         -2.77817        0.05452        1.60575
H         -3.35948        1.44813        0.64597
H         -1.22355        1.36615       -0.69100
H         -0.99699        1.75110        1.04184
H          0.93217        2.04697       -0.28096
H          3.35232        2.03555       -0.72016
H          4.67905       -0.05873       -0.48860
H          3.52904       -2.16760        0.19600
H          1.07208       -2.16012        0.63868
