35
molCl3000_conf-6
C         -3.87773       -0.37644        1.60108
C         -3.60266        0.35605        0.28851
C         -4.32424       -0.29384       -0.89137
O         -2.17630        0.40976        0.03665
C         -1.44755       -0.70258       -0.14999
N         -0.14412       -0.39153       -0.40400
C          0.81726       -1.47875       -0.53879
C          2.16139       -1.05791        0.03787
C          2.75675        0.14834       -0.71291
C          1.62696        1.03984       -1.27654
C          0.35405        0.97672       -0.44047
C          3.68355        0.97563        0.16716
Cl         5.04404        0.00840        0.83592
O         -1.87441       -1.83713       -0.09946
C         -3.98601        1.82825        0.40639
H         -4.94865       -0.31040        1.84410
H         -3.31020        0.08836        2.42131
H         -3.59413       -1.43306        1.52643
H         -5.41206       -0.22222       -0.74388
H         -4.04683       -1.35058       -0.98663
H         -4.06984        0.22773       -1.82643
H          0.41460       -2.35241       -0.01142
H          0.92960       -1.77291       -1.59906
H          2.01771       -0.80081        1.10129
H          2.86165       -1.90420        0.01841
H          3.35531       -0.22377       -1.56033
H          1.95734        2.08767       -1.35472
H          1.38253        0.71823       -2.30060
H         -0.41656        1.62679       -0.87217
H          0.54566        1.35289        0.58259
H          4.13617        1.79995       -0.39985
H          3.14202        1.39813        1.02675
H         -3.43060        2.30627        1.22637
H         -3.75609        2.36318       -0.52666
H         -5.06228        1.92617        0.60891
