19
molCl425_conf-5
Cl        -3.63320        0.53568       -0.14507
C         -2.05018       -0.16845       -0.59621
C         -1.37723       -0.76597        0.63314
O         -0.13147       -1.32430        0.30522
C          0.96153       -0.53229        0.16415
C          0.97662        0.85124        0.37106
C          2.16973        1.55940        0.20641
C          3.34327        0.91050       -0.16215
C          3.31987       -0.47145       -0.36803
C          2.14201       -1.18934       -0.20769
H         -2.22396       -0.94259       -1.35424
H         -1.44423        0.63105       -1.04182
H         -1.29167       -0.01106        1.43287
H         -1.99029       -1.59020        1.02268
H          0.07474        1.39254        0.65917
H          2.16985        2.63935        0.37043
H          4.26959        1.47332       -0.28974
H          4.23253       -0.99746       -0.65706
H          2.10574       -2.26904       -0.36200
