33
molCl608_clust-11
C          4.00004       -0.51016        0.10780
C          2.50753       -0.83581       -0.06735
C          2.07855       -1.82228        1.03138
C          2.27940       -1.47647       -1.44538
Si         1.49139        0.77432        0.04412
C          2.16099        2.08566       -1.10590
C          1.43810        1.40879        1.81178
O         -0.07787        0.50231       -0.49616
C         -1.05272       -0.30392        0.09519
C         -2.43605        0.21963       -0.26933
C         -3.54056       -0.64300        0.31087
Cl        -5.16947       -0.01769       -0.11693
H          4.20750       -0.02539        1.07608
H          4.60288       -1.43467        0.07125
H          4.37265        0.15465       -0.68743
H          2.25260       -1.41647        2.04059
H          1.01294       -2.09136        0.95759
H          2.65590       -2.76039        0.95207
H          1.21850       -1.72082       -1.61039
H          2.85969       -2.41132       -1.53919
H          2.59475       -0.81087       -2.26473
H          3.15835        2.42669       -0.78809
H          1.48860        2.95712       -1.11294
H          2.23794        1.71283       -2.13845
H          0.93835        0.70432        2.49456
H          0.89683        2.36661        1.85826
H          2.45564        1.57766        2.19870
H         -0.94935       -1.35071       -0.25401
H         -0.94673       -0.32904        1.19867
H         -2.53623        1.25314        0.09628
H         -2.52434        0.25567       -1.36584
H         -3.48929       -1.67394       -0.06625
H         -3.49447       -0.67653        1.40841
