20
molCl995_clust-4
C          3.18028       -1.57410       -0.05357
C          2.63670       -0.21548       -0.42936
O          1.39699       -0.03029        0.25424
C          0.74004        1.11357        0.01430
O          1.15099        1.96132       -0.73148
C         -0.54210        1.22682        0.81098
C         -1.13135       -0.07111        1.35309
C         -1.58597       -1.05801        0.29155
Cl        -2.89596       -0.38984       -0.74931
H          4.14150       -1.74560       -0.55871
H          3.34266       -1.64581        1.03155
H          2.48645       -2.37277       -0.35372
H          3.32594        0.59521       -0.14550
H          2.46549       -0.12547       -1.51335
H         -0.31990        1.91185        1.64568
H         -1.26493        1.75316        0.17124
H         -0.38337       -0.58632        1.97612
H         -1.98410        0.17151        2.00577
H         -1.98747       -1.97008        0.75089
H         -0.76031       -1.33675       -0.37573
