38
molCl921_clust-31
C         -7.12347        0.74878       -0.31037
C         -5.81503        0.14020        0.18257
C         -4.58354        0.92347       -0.27104
C         -3.25081        0.40437        0.27185
C         -2.86590       -0.99186       -0.21794
C         -1.53489       -1.51241        0.32770
C         -0.30379       -0.72670       -0.12051
C          1.00700       -1.33304        0.37789
C          2.27397       -0.62425       -0.10455
C          2.43831        0.79434        0.44228
C          3.65564        1.57595       -0.05820
C          5.02159        1.10506        0.41917
Cl         5.65329       -0.33997       -0.45725
H         -7.99379        0.16613        0.02672
H         -7.24746        1.77950        0.05848
H         -7.15322        0.78715       -1.41101
H         -5.74678       -0.90291       -0.16836
H         -5.82226        0.08845        1.28570
H         -4.54729        0.93398       -1.37574
H         -4.70495        1.97722        0.03472
H         -3.28212        0.40328        1.37693
H         -2.46063        1.12068       -0.00696
H         -3.65744       -1.70742        0.05860
H         -2.83190       -0.99004       -1.32285
H         -1.57432       -1.52476        1.43210
H         -1.41278       -2.56538        0.02051
H         -0.28488       -0.67872       -1.22482
H         -0.38662        0.31626        0.22693
H          1.05142       -2.38823        0.05836
H          0.99924       -1.35546        1.48300
H          3.14946       -1.22828        0.17585
H          2.27837       -0.59003       -1.20877
H          1.54426        1.38718        0.18852
H          2.46579        0.75557        1.54681
H          3.55806        2.61851        0.29088
H          3.65741        1.62350       -1.15989
H          5.77597        1.88765        0.26811
H          5.00612        0.84218        1.48637
