38
molCl921_clust-26
C          5.62777        1.85090       -0.20743
C          4.94947        0.50561       -0.44052
C          3.68258        0.31366        0.38967
C          2.99600       -1.02828        0.14758
C          1.77636       -1.28789        1.03450
C          0.65083       -0.25400        0.92332
C          0.12242       -0.01607       -0.49443
C         -0.37977       -1.26492       -1.22401
C         -1.56608       -1.99838       -0.58792
C         -2.86115       -1.17634       -0.50729
C         -3.06070       -0.42014        0.80603
C         -4.23169        0.54447        0.79266
Cl        -3.94446        1.93332       -0.32291
H          5.91879        1.97164        0.84824
H          6.53639        1.95788       -0.81858
H          4.95423        2.68501       -0.46101
H          5.65783       -0.31056       -0.21485
H          4.69856        0.39803       -1.51029
H          3.92978        0.40942        1.46292
H          2.98323        1.13890        0.16793
H          3.72755       -1.83850        0.31009
H          2.70885       -1.09953       -0.91647
H          1.37789       -2.29043        0.80370
H          2.10333       -1.33435        2.08765
H         -0.17345       -0.57444        1.58222
H          0.99269        0.71050        1.33455
H         -0.68035        0.73994       -0.46007
H          0.91992        0.44098       -1.10448
H          0.45309       -1.97892       -1.34084
H         -0.66573       -0.97510       -2.24974
H         -1.75537       -2.90193       -1.18887
H         -1.29416       -2.36742        0.41711
H         -2.88800       -0.45692       -1.34313
H         -3.73137       -1.83847       -0.65281
H         -2.15457        0.13921        1.08128
H         -3.23576       -1.14247        1.62306
H         -4.40594        0.98009        1.78466
H         -5.15796        0.05923        0.45425
