20
molCl995_clust-5
C         -4.61311       -0.63118        0.00038
C         -3.46695        0.35313        0.00015
O         -2.24661       -0.38877       -0.00024
C         -1.11277        0.31828       -0.00047
O         -1.07826        1.52016       -0.00001
C          0.09476       -0.59110       -0.00033
C          1.41153        0.17382       -0.00013
C          2.60026       -0.76990        0.00000
Cl         4.15713        0.12488        0.00022
H         -5.57043       -0.09081        0.00067
H         -4.57860       -1.27373       -0.89109
H         -4.57812       -1.27386        0.89173
H         -3.48893        1.00854       -0.88470
H         -3.48846        1.00840        0.88511
H          0.00947       -1.25386        0.87702
H          0.00969       -1.25380       -0.87774
H          1.46137        0.83280       -0.87970
H          1.46113        0.83275        0.87948
H          2.60426       -1.41438       -0.89011
H          2.60403       -1.41442        0.89008
