19
molCl467_clust-3
C         -2.35430        1.34473        0.19234
C         -1.72503        0.00664       -0.11274
O         -1.88069       -0.54869       -1.17470
C         -0.88259       -0.60520        0.99386
C          0.05425       -1.71314        0.52146
C          1.12502       -1.30617       -0.49508
C          2.15414       -0.28768       -0.03288
Cl         1.55062        1.41882       -0.03696
H         -1.55855        2.10645        0.16226
H         -2.78808        1.36442        1.20331
H         -3.11591        1.58585       -0.55917
H         -0.34446        0.19815        1.51998
H         -1.59804       -1.01448        1.73063
H          0.54352       -2.15968        1.40360
H         -0.55381       -2.50763        0.06288
H          1.69244       -2.21304       -0.76542
H          0.65147       -0.95479       -1.42412
H          3.02506       -0.28182       -0.69998
H          2.50228       -0.48905        0.99023
