26
molCl3001_conf-7
C          4.65175       -1.89805       -0.18823
C          3.40941       -1.05732       -0.06423
C          3.26345        0.11099       -0.82721
C          2.13478        0.91221       -0.70727
C          1.12914        0.54031        0.18598
S         -0.34495        1.53550        0.29937
O         -0.99542        1.19161        1.55256
O          0.00203        2.89681       -0.05993
N         -1.34034        1.00057       -0.91089
C         -1.94246       -0.31934       -0.86826
C         -3.26083       -0.30060       -0.10608
Cl        -3.98460       -1.94131       -0.09212
C          1.25238       -0.60684        0.96573
C          2.39049       -1.39953        0.83097
H          4.94500       -2.02381       -1.24066
H          5.49614       -1.41869        0.33231
H          4.51096       -2.89477        0.25157
H          4.05511        0.40095       -1.52286
H          2.03427        1.83232       -1.28628
H         -1.12914        1.41458       -1.81165
H         -2.11561       -0.65068       -1.90202
H         -1.26172       -1.06021       -0.41264
H         -3.09831        0.01210        0.93220
H         -3.97722        0.38185       -0.58094
H          0.46940       -0.86129        1.68218
H          2.48929       -2.30029        1.44162
