22
molCl431_clust-2
Cl        -3.80570       -0.97736       -0.50038
C         -2.80836        0.09446        0.53015
C         -1.53046        0.47812       -0.18887
O         -0.81570        1.32611        0.66705
C          0.40619        1.77455        0.14772
C          1.46330        0.69243        0.05446
C          2.35948        0.65275       -1.01570
C          3.35328       -0.32448       -1.07461
C          3.45154       -1.28119       -0.06638
C          2.55289       -1.25485        1.00104
C          1.56740       -0.27283        1.06196
H         -2.58353       -0.44288        1.46018
H         -3.40193        0.98585        0.76943
H         -1.77348        0.98930       -1.14117
H         -0.95329       -0.43181       -0.43874
H          0.74850        2.56727        0.83149
H          0.26274        2.24057       -0.84717
H          2.27886        1.39325       -1.81669
H          4.04780       -0.34330       -1.91742
H          4.22475       -2.05106       -0.11372
H          2.62229       -2.00478        1.79230
H          0.85825       -0.25008        1.89296
