16
molCl234_conf-5
Cl        -1.98431       -0.53258       -0.43416
C         -1.29583        0.79379        0.56504
C          0.22512        0.80785        0.56641
C          0.88815        0.93033       -0.81740
C          2.09208       -0.00456       -0.69693
C          1.54473       -1.07177        0.24497
O          0.73223       -0.36791        1.16101
H         -1.66784        0.64052        1.58559
H         -1.69310        1.74030        0.17312
H          0.51166        1.66505        1.20695
H          0.20135        0.56781       -1.59704
H          1.15896        1.96793       -1.05647
H          2.94416        0.51330       -0.22909
H          2.42579       -0.40967       -1.66241
H          2.32362       -1.60451        0.80980
H          0.94532       -1.81745       -0.31035
