15
molCl3003_conf-4
C         -2.59113       -1.19845       -0.06664
C         -1.72690        0.04460       -0.03073
O         -2.00680        1.05393       -0.64586
N         -0.59767       -0.05328        0.73501
C          0.39700        0.98961        0.73468
C          1.43869        0.83349       -0.36112
Cl         2.35279       -0.70796       -0.17895
H         -3.63950       -0.89394       -0.17081
H         -2.47381       -1.82852        0.82598
H         -2.32281       -1.79287       -0.95335
H         -0.32669       -0.95965        1.09329
H          0.88794        1.02776        1.71882
H         -0.12474        1.94425        0.57194
H          0.96252        0.81424       -1.34982
H          2.17160        1.64999       -0.32922
