12
molCl295_conf-2
Cl         1.91905       -0.56553       -0.27738
C          0.84567        0.26751        0.90214
C         -0.07009        1.27110        0.22403
C         -1.04933        0.65046       -0.78012
C         -1.96863       -0.30133       -0.15284
N         -2.67274       -1.04939        0.37634
H          1.49937        0.76544        1.62886
H          0.27450       -0.51506        1.42097
H         -0.63243        1.79872        1.01170
H          0.53521        2.02494       -0.30152
H         -1.64475        1.43618       -1.26823
H         -0.49224        0.12312       -1.56999
