23
molCl3004_conf-2
C         -3.22076        1.24056       -0.00001
Si        -1.83090       -0.02884        0.00000
C         -1.94922       -1.10744        1.53930
C         -1.94922       -1.10745       -1.53929
C         -0.17411        0.89005       -0.00000
C          1.06163       -0.01474       -0.00000
C          2.35380        0.78379        0.00000
Cl         3.80259       -0.28349       -0.00000
H         -3.16958        1.88757       -0.89015
H         -4.20620        0.74806       -0.00000
H         -3.16958        1.88759        0.89012
H         -1.15673       -1.87219        1.55707
H         -1.85655       -0.50417        2.45654
H         -2.91757       -1.63125        1.57919
H         -1.15673       -1.87220       -1.55705
H         -2.91756       -1.63127       -1.57917
H         -1.85654       -0.50419       -2.45654
H         -0.15450        1.55665       -0.88158
H         -0.15450        1.55665        0.88158
H          1.05699       -0.67593        0.88197
H          1.05699       -0.67592       -0.88197
H          2.42898        1.42250       -0.89089
H          2.42898        1.42250        0.89089
