38
molCl921_clust-11
C         -3.83050        2.21003       -0.89168
C         -4.51328        1.54313        0.30140
C         -4.90629        0.07216        0.08834
C         -3.85567       -0.96447        0.49575
C         -2.52004       -0.88251       -0.23869
C         -1.55584       -2.00373        0.13993
C         -0.24181       -1.99797       -0.64602
C          0.55868       -0.69361       -0.59091
C          0.93858       -0.24718        0.81915
C          1.70924        1.07529        0.87731
C          3.01154        1.12793        0.07201
C          4.00199        0.05117        0.47783
Cl         5.55847        0.21221       -0.40904
H         -2.89335        1.70768       -1.17165
H         -3.59176        3.26258       -0.67575
H         -4.48698        2.19363       -1.77617
H         -5.41924        2.12251        0.54303
H         -3.86749        1.62100        1.19428
H         -5.82078       -0.14039        0.66536
H         -5.18125       -0.08052       -0.97095
H         -4.28205       -1.97191        0.34677
H         -3.66914       -0.87694        1.58167
H         -2.69513       -0.90047       -1.33015
H         -2.04692        0.08972       -0.02293
H         -1.34900       -1.95043        1.22334
H         -2.05280       -2.97652       -0.01603
H          0.39313       -2.82336       -0.28007
H         -0.45776       -2.22919       -1.70320
H         -0.00607        0.11668       -1.08533
H          1.47063       -0.82733       -1.19653
H          0.02665       -0.13199        1.42774
H          1.51721       -1.04980        1.31101
H          1.92921        1.31258        1.93233
H          1.05410        1.88613        0.51655
H          3.48472        2.11245        0.21118
H          2.80664        1.03547       -1.00655
H          3.62539       -0.95694        0.25935
H          4.23833        0.10624        1.54990
