20
molCl910_clust-5
C         -3.30746       -1.22122       -0.20813
C         -2.19128       -0.42568        0.45906
C         -1.70397        0.74991       -0.39017
C         -0.56083        1.57011        0.22600
C          0.85747        1.13192       -0.15467
C          1.21300       -0.28258        0.26840
Cl         2.93411       -0.66368       -0.09380
H         -2.97025       -1.65590       -1.16256
H         -3.65329       -2.04684        0.43124
H         -4.17635       -0.58021       -0.42655
H         -2.54247       -0.03839        1.43118
H         -1.35333       -1.10175        0.69516
H         -1.39909        0.38488       -1.38812
H         -2.56616        1.41315       -0.57259
H         -0.66425        1.57485        1.32580
H         -0.66260        2.62169       -0.08455
H          1.58401        1.82218        0.30261
H          0.99203        1.21711       -1.24583
H          1.07474       -0.42846        1.34894
H          0.61557       -1.03449       -0.26307
