21
molCl229_conf-3
Cl        -2.52481        0.00002       -0.64225
C         -1.65292       -0.00003        0.93806
C         -0.13684       -0.00002        0.79447
C          0.39753       -1.26396        0.11128
C          1.92377       -1.26106        0.02232
C          2.44130        0.00002       -0.66986
C          1.92375        1.26108        0.02235
C          0.39750        1.26395        0.11132
H         -1.99867        0.89260        1.47680
H         -1.99866       -0.89271        1.47674
H          0.23863       -0.00003        1.83711
H          0.04667       -2.15816        0.65275
H         -0.03194       -1.32312       -0.90336
H          2.27110       -2.16136       -0.50837
H          2.34920       -1.31561        1.04067
H          2.10361        0.00003       -1.72155
H          3.54246        0.00003       -0.69405
H          2.27106        2.16140       -0.50832
H          2.34918        1.31561        1.04070
H         -0.03196        1.32313       -0.90332
H          0.04663        2.15813        0.65281
