12
molCl1933_conf-2
N         -2.04543       -0.95603        0.33645
C         -1.30749        0.10905       -0.07072
O         -1.47247        0.65897       -1.13839
C         -0.27299        0.61577        0.93081
C          1.04694        0.92006        0.25289
Cl         1.88406       -0.59259       -0.24467
H         -2.71935       -1.34175       -0.31270
H         -1.81557       -1.48077        1.16701
H         -0.67326        1.55734        1.34346
H         -0.12447       -0.07686        1.77280
H          1.73028        1.45937        0.91995
H          0.87230        1.50784       -0.65706
