21
molCl3002_conf-4
C         -3.42430       -0.46765       -0.25124
O         -2.08709       -0.25208       -0.67500
C         -1.15789       -0.96929       -0.05428
O         -1.38894       -1.85409        0.72476
C          0.25415       -0.60409       -0.52119
C          1.27047       -1.18311        0.46076
Cl         2.94128       -0.91275       -0.13781
N          0.40971        0.81192       -0.74021
C          0.07469        1.70968        0.23170
C          0.43448        3.14870       -0.05974
O         -0.46289        1.35401        1.26300
H         -4.05052        0.18467       -0.86945
H         -3.71548       -1.51884       -0.38769
H         -3.53222       -0.20289        0.81012
H          0.38605       -1.10069       -1.49650
H          1.17489       -0.69456        1.43777
H          1.12065       -2.26108        0.58142
H          0.94944        1.11601       -1.53772
H         -0.18729        3.80042        0.56442
H          1.48995        3.31753        0.20345
H          0.29659        3.40462       -1.11976
