27
molCl1174_clust-4
C         -5.28326        0.03014        0.58108
O         -3.93950        0.42541        0.36783
C         -3.09196       -0.53956       -0.00906
O         -3.42991       -1.68592       -0.16279
C         -1.70300       -0.03503       -0.21150
C         -1.35705        1.30635       -0.01740
C         -0.04544        1.72142       -0.22174
C          0.94489        0.81633       -0.62406
C          2.37424        1.26817       -0.79688
C          3.17824        1.24448        0.51105
C          3.28990       -0.11758        1.17227
Cl         4.12007       -1.32395        0.11916
C          0.58640       -0.52454       -0.81568
C         -0.72252       -0.94744       -0.61151
H         -5.82638        0.93439        0.87740
H         -5.71811       -0.39049       -0.33716
H         -5.34723       -0.72867        1.37442
H         -2.12235        2.01945        0.29087
H          0.21620        2.77269       -0.07212
H          2.39177        2.29381       -1.19611
H          2.88068        0.62860       -1.53545
H          2.70485        1.91867        1.24615
H          4.18903        1.63936        0.32176
H          3.87620       -0.05962        2.09787
H          2.30293       -0.53868        1.40679
H          1.35094       -1.24395       -1.12020
H         -1.00713       -1.99078       -0.75974
