15
molCl309_clust-1
Cl         2.07227       -0.57476       -0.45390
C          1.06503       -0.00684        0.92598
C          0.37079        1.31180        0.61405
C         -0.60877        1.29923       -0.56168
C         -1.97985        0.66631       -0.28050
C         -1.95913       -0.77255       -0.00554
N         -1.94476       -1.90591        0.22055
H          1.74399        0.11084        1.78001
H          0.36010       -0.81668        1.14933
H         -0.14956        1.63813        1.53213
H          1.14731        2.06681        0.41507
H         -0.13789        0.80342       -1.42453
H         -0.80171        2.33874       -0.86650
H         -2.64410        0.82133       -1.14484
H         -2.46191        1.16205        0.57794
