12
molCl295_conf-7
Cl        -2.59263       -0.36052       -0.00001
C         -1.12896        0.67230        0.00001
C          0.13766       -0.16631        0.00002
C          1.38754        0.72480        0.00000
C          2.62921       -0.04896       -0.00006
N          3.60138       -0.67301        0.00003
H         -1.18636        1.31345        0.89061
H         -1.18634        1.31346       -0.89057
H          0.14561       -0.82125        0.88414
H          0.14560       -0.82126       -0.88408
H          1.39690        1.38227       -0.88432
H          1.39693        1.38225        0.88433
