38
molCl921_clust-15
C          2.23057        2.71346       -0.28853
C          3.62485        2.13215       -0.06390
C          3.69006        0.60726       -0.17439
C          2.92453       -0.13126        0.92227
C          2.93082       -1.65582        0.79008
C          2.32786       -2.19821       -0.51382
C          0.97240       -1.60099       -0.89759
C         -0.13587       -1.80447        0.13551
C         -1.42034       -1.03102       -0.17149
C         -1.28060        0.47467        0.06487
C         -2.46232        1.34688       -0.36379
C         -3.74334        1.21628        0.44604
Cl        -4.71468       -0.25337        0.05697
H          2.24776        3.81339       -0.26678
H          1.82843        2.40552       -1.26783
H          1.51621        2.38219        0.48088
H          3.99869        2.44326        0.92739
H          4.31842        2.57146       -0.79974
H          3.30563        0.31072       -1.16620
H          4.74505        0.28358       -0.15219
H          1.87997        0.22220        0.94783
H          3.35249        0.14455        1.90158
H          3.96625       -2.02715        0.87893
H          2.38935       -2.08193        1.65106
H          3.03222       -2.02404       -1.34438
H          2.23564       -3.29454       -0.42829
H          1.10105       -0.52367       -1.09667
H          0.64633       -2.03781       -1.85684
H          0.22041       -1.50688        1.13717
H         -0.36204       -2.88171        0.20701
H         -1.72203       -1.21183       -1.21854
H         -2.24176       -1.42364        0.44563
H         -1.07355        0.65228        1.13638
H         -0.39117        0.84565       -0.47080
H         -2.69334        1.18583       -1.42995
H         -2.15576        2.40357       -0.27490
H         -3.53460        1.17725        1.52452
H         -4.41172        2.06546        0.25472
