12
molCl295_conf-9
Cl         1.42799       -0.98801        0.02765
C          1.36350        0.80271        0.09801
C          0.06399        1.37911       -0.43633
C         -1.19835        1.01278        0.35894
C         -1.76880       -0.30352        0.05923
N         -2.26949       -1.31526       -0.18586
H          2.21386        1.17540       -0.48759
H          1.51862        1.08512        1.14883
H         -0.06399        1.10380       -1.49421
H          0.17110        2.47563       -0.40543
H         -1.00220        1.06689        1.44203
H         -1.98881        1.74961        0.14827
