23
molCl3004_conf-6
C         -3.33763       -0.64638       -0.26055
Si        -1.61860        0.06456        0.03007
C         -1.49835        1.71970       -0.86596
C         -1.33074        0.31233        1.87499
C         -0.35150       -1.18089       -0.64326
C          1.08281       -1.11319       -0.10048
C          1.77389        0.20341       -0.40943
Cl         3.48503        0.20203        0.14374
H         -3.47084       -1.59994        0.27468
H         -4.11826        0.04783        0.08904
H         -3.51299       -0.83489       -1.33188
H         -2.28746        2.40426       -0.51538
H         -0.53122        2.21998       -0.70512
H         -1.63086        1.58825       -1.95193
H         -0.33781        0.74412        2.07848
H         -2.08335        0.99337        2.30302
H         -1.39657       -0.64397        2.41829
H         -0.34233       -1.10852       -1.74621
H         -0.75481       -2.18452       -0.42266
H          1.08504       -1.26307        0.99158
H          1.68931       -1.92938       -0.52490
H          1.78644        0.40838       -1.48918
H          1.28972        1.04986        0.09582
