33
molCl608_clust-5
C         -2.83254       -1.55523        0.91454
C         -2.69637       -0.52718       -0.22005
C         -3.98328        0.30723       -0.31839
C         -2.45554       -1.26413       -1.54736
Si        -1.21955        0.60654        0.13943
C         -1.38977        1.49178        1.78733
C         -0.95023        1.86960       -1.22369
O          0.09990       -0.43565        0.20365
C          1.41554       -0.04934        0.48303
C          2.35755       -1.18844        0.12548
C          3.81167       -0.92383        0.46050
Cl         4.49712        0.45799       -0.47540
H         -3.66353       -2.25166        0.70518
H         -1.91333       -2.15003        1.02861
H         -3.04557       -1.07319        1.88229
H         -4.19921        0.84660        0.61819
H         -4.84943       -0.34529       -0.52602
H         -3.93314        1.05008       -1.13093
H         -2.38790       -0.56688       -2.39790
H         -3.28771       -1.95874       -1.75812
H         -1.52444       -1.85041       -1.51717
H         -1.47642        0.77712        2.62013
H         -2.27895        2.14170        1.80104
H         -0.51298        2.13054        1.97996
H         -0.07006        2.49726       -1.01229
H         -0.78893        1.38101       -2.19667
H         -1.81771        2.54185       -1.31744
H          1.70478        0.85286       -0.08762
H          1.53125        0.19978        1.55725
H          2.04098       -2.08796        0.67980
H          2.25148       -1.42014       -0.94583
H          3.94530       -0.67499        1.52267
H          4.43690       -1.79452        0.22706
