29
molCl542_conf-4
C          3.69039       -0.23456       -1.09725
C          3.01289        0.54424        0.02958
C          3.21075        2.04497       -0.15889
C          3.50889        0.10371        1.40614
O          1.57354        0.38958       -0.05348
C          0.98260       -0.80706        0.07296
O          1.53085       -1.87338        0.24541
N         -0.36363       -0.66411       -0.01611
C         -1.36628       -1.69849       -0.16709
C         -2.38251       -0.58532       -0.54902
C         -3.48579       -0.38262        0.46382
Cl        -4.42845        1.10607        0.11162
C         -1.21035        0.42714       -0.46861
H          3.54015       -1.31390       -0.97254
H          3.28091        0.07280       -2.07134
H          4.76985       -0.02258       -1.09665
H          2.81435        2.36653       -1.13293
H          2.68702        2.60442        0.62968
H          4.28037        2.29603       -0.11581
H          2.97124        0.64905        2.19629
H          4.58141        0.32869        1.50233
H          3.35780       -0.97304        1.55107
H         -1.58941       -2.25701        0.75757
H         -1.14347       -2.42269       -0.96741
H         -2.80875       -0.69411       -1.55539
H         -3.07519       -0.27195        1.47756
H         -4.19274       -1.22319        0.45988
H         -0.90217        0.86191       -1.43260
H         -1.34095        1.24303        0.26037
