14
molCl248_conf-1
Cl         2.52233        0.24369       -0.04405
C          1.08154       -0.74497        0.32513
C         -0.15379       -0.21535       -0.37219
O         -1.20424       -1.13754       -0.19179
C         -2.37552       -0.42486        0.15084
C         -1.95910        1.03781       -0.02916
O         -0.57243        0.98426        0.19583
H          0.91608       -0.73362        1.40978
H          1.27390       -1.77120       -0.01009
H          0.04271       -0.08517       -1.45856
H         -3.20639       -0.71893       -0.50875
H         -2.65740       -0.64479        1.19438
H         -2.41355        1.72598        0.69490
H         -2.18033        1.39552       -1.05286
