26
molCl3001_conf-4
C         -4.23618       -1.89593       -0.08279
C         -3.05070       -0.97171       -0.00734
C         -2.28992       -0.86186        1.16064
C         -1.20274        0.00823        1.23354
C         -0.87249        0.76974        0.11823
S          0.54080        1.84841        0.17811
O          0.24375        3.06920       -0.54991
O          1.00080        1.87305        1.55768
N          1.65144        1.05244       -0.77596
C          2.47351       -0.01289       -0.22985
C          1.90555       -1.37891       -0.59717
Cl         2.93882       -2.68426        0.06630
C         -1.61882        0.69021       -1.05797
C         -2.69897       -0.18002       -1.11240
H         -5.17571       -1.32097       -0.08607
H         -4.21576       -2.49372       -1.00598
H         -4.26730       -2.58486        0.77209
H         -2.55119       -1.46515        2.03337
H         -0.61029        0.10229        2.14514
H          2.07466        1.70377       -1.42950
H          3.49288        0.08179       -0.63060
H          2.55100        0.08452        0.86485
H          0.89618       -1.51294       -0.18627
H          1.86025       -1.50490       -1.68669
H         -1.35177        1.30976       -1.91609
H         -3.28747       -0.24804       -2.03094
