23
molCl3004_conf-5
C          1.49835        1.71969       -0.86597
Si         1.61860        0.06456        0.03007
C          3.33763       -0.64638       -0.26055
C          1.33074        0.31234        1.87499
C          0.35150       -1.18090       -0.64325
C         -1.08281       -1.11319       -0.10047
C         -1.77389        0.20341       -0.40943
Cl        -3.48503        0.20203        0.14374
H          2.28746        2.40425       -0.51539
H          1.63086        1.58824       -1.95194
H          0.53122        2.21997       -0.70513
H          3.47085       -1.59992        0.27472
H          3.51297       -0.83494       -1.33187
H          4.11827        0.04785        0.08900
H          1.39657       -0.64395        2.41829
H          2.08335        0.99339        2.30301
H          0.33782        0.74415        2.07847
H          0.75481       -2.18453       -0.42264
H          0.34233       -1.10853       -1.74620
H         -1.68931       -1.92939       -0.52489
H         -1.08504       -1.26306        0.99159
H         -1.28972        1.04986        0.09581
H         -1.78644        0.40838       -1.48918
