38
molCl921_clust-34
C          7.73527        0.35098        0.13516
C          6.31230        0.88347        0.26208
C          5.24551       -0.14426       -0.10755
C          3.81815        0.38065        0.01621
C          2.75231       -0.64757       -0.35126
C          1.32505       -0.12074       -0.23072
C          0.26442       -1.16029       -0.58803
C         -1.17510       -0.64306       -0.57528
C         -1.67495       -0.19569        0.79864
C         -3.11822        0.31048        0.81313
C         -4.16445       -0.75841        0.50595
C         -5.59958       -0.27157        0.59430
Cl        -5.98010        0.97480       -0.65160
H          8.47932        1.11412        0.40812
H          7.89376       -0.52006        0.79080
H          7.94894        0.02979       -0.89676
H          6.19222        1.77504       -0.37779
H          6.13749        1.23002        1.29559
H          5.41785       -0.49248       -1.14209
H          5.36264       -1.03747        0.53256
H          3.70054        1.27265       -0.62513
H          3.64652        0.73013        1.05030
H          2.92578       -1.00008       -1.38396
H          2.86720       -1.53814        0.29264
H          1.16628        0.24365        0.79887
H          1.20426        0.76146       -0.88538
H          0.48747       -1.56130       -1.59166
H          0.34966       -2.01799        0.10368
H         -1.83214       -1.43767       -0.96554
H         -1.26788        0.20014       -1.28342
H         -1.56925       -1.03238        1.51361
H         -1.02544        0.60927        1.17868
H         -3.33747        0.74233        1.80494
H         -3.22716        1.13587        0.09003
H         -4.06128       -1.59164        1.22442
H         -4.00074       -1.18829       -0.49509
H         -6.31080       -1.09204        0.43464
H         -5.81039        0.18956        1.56939
