21
molCl3002_conf-12
C         -3.58907       -0.90421        0.14240
O         -2.33519       -0.49101        0.66980
C         -1.26296       -0.77522       -0.05915
O         -1.28868       -1.38410       -1.09587
C          0.00518       -0.22929        0.58161
C         -0.09486        1.27241        0.85086
Cl        -0.35564        2.19441       -0.66569
N          1.11711       -0.59294       -0.24974
C          2.39726       -0.52521        0.20734
C          3.46700       -0.91297       -0.78963
O          2.65547       -0.14884        1.33597
H         -3.61463       -1.99520        0.01270
H         -4.34453       -0.58905        0.86967
H         -3.77238       -0.42619       -0.83002
H          0.11598       -0.70302        1.57431
H         -0.93601        1.48601        1.52061
H          0.84254        1.61636        1.30292
H          0.89512       -0.93044       -1.17911
H          3.88563        0.00419       -1.23031
H          4.27533       -1.42688       -0.25508
H          3.09095       -1.55161       -1.60048
