12
molCl2074_clust-2
O         -2.64858       -0.27593       -0.19312
C         -1.34807       -0.33480        0.33190
C         -0.54348        0.79399       -0.28848
C          0.86571        0.92976        0.25184
Cl         1.88379       -0.51914       -0.09187
H         -3.14378       -1.03314        0.12768
H         -0.85360       -1.29822        0.10743
H         -1.34578       -0.21872        1.43579
H         -1.07099        1.74323       -0.09482
H         -0.52027        0.66092       -1.38135
H          1.38188        1.78444       -0.20269
H          0.87181        1.06057        1.34308
