20
molCl910_clust-4
C          4.08889       -0.25163       -0.21158
C          2.69786       -0.52414        0.34949
C          1.62449        0.40143       -0.21789
C          0.23000        0.12781        0.33690
C         -0.83743        1.05434       -0.23640
C         -2.23756        0.81409        0.29825
Cl        -2.87876       -0.80917       -0.15361
H          4.10802       -0.37775       -1.30578
H          4.41160        0.77871        0.00741
H          4.83820       -0.93413        0.21617
H          2.41415       -1.57126        0.14645
H          2.71598       -0.42555        1.44887
H          1.90370        1.45136       -0.01446
H          1.60404        0.30379       -1.31834
H          0.24557        0.22684        1.43729
H         -0.05228       -0.91742        0.12833
H         -0.85408        0.97505       -1.33633
H         -0.58038        2.10364       -0.00519
H         -2.26369        0.86369        1.39579
H         -2.94949        1.54747       -0.10150
