18
molCl267_conf-3
Cl        -2.50025       -0.81981       -0.50428
C         -2.07017        0.88448       -0.12803
C         -0.98398        0.99342        0.93607
C          0.35961        0.45979        0.50093
C          1.24529        1.27214       -0.21629
C          2.47211        0.77907       -0.65643
C          2.83192       -0.54003       -0.38366
C          1.95800       -1.35874        0.33002
C          0.73159       -0.86196        0.76770
H         -2.99489        1.37311        0.20578
H         -1.74772        1.34410       -1.07212
H         -1.32478        0.48097        1.84873
H         -0.89174        2.06319        1.18793
H          0.97218        2.30995       -0.42966
H          3.15201        1.42924       -1.21159
H          3.79368       -0.92880       -0.72531
H          2.23228       -2.39333        0.54782
H          0.04710       -1.51063        1.31934
