19
molCl425_conf-7
Cl        -2.96038       -0.65431       -0.74987
C         -2.13008        0.85626       -0.26490
C         -1.46771        0.72536        1.09566
O         -0.48484       -0.27093        1.15148
C          0.71022       -0.10025        0.53600
C          1.17022        1.10967        0.00491
C          2.43615        1.16865       -0.58373
C          3.24754        0.04142       -0.65073
C          2.78171       -1.16388       -0.11810
C          1.52565       -1.23805        0.46866
H         -1.40078        1.08799       -1.05198
H         -2.88201        1.65630       -0.23381
H         -1.06475        1.71142        1.39288
H         -2.22022        0.43926        1.84340
H          0.56331        2.01474        0.04464
H          2.78475        2.11894       -0.99456
H          4.23397        0.09701       -1.11446
H          3.40547       -2.05946       -0.16332
H          1.14315       -2.17065        0.88641
