26
molCl3001_conf-1
C          4.46696        0.43163       -0.00536
C          3.04179       -0.05236       -0.02654
C          2.34044       -0.19423       -1.22662
C          1.01437       -0.62396       -1.23977
C          0.38769       -0.91306       -0.03448
S         -1.31883       -1.40586       -0.02659
O         -1.71121       -1.62437       -1.41048
O         -1.51101       -2.41886        0.99691
N         -2.11672       -0.07147        0.55862
C         -2.58331        0.98947       -0.30306
C         -2.13308        2.37045        0.14442
Cl        -0.35102        2.55375        0.09227
C          1.06616       -0.79701        1.17871
C          2.38507       -0.36680        1.17388
H          5.11062       -0.25704        0.56244
H          4.87776        0.52548       -1.01975
H          4.53556        1.41803        0.47962
H          2.83737        0.03587       -2.17217
H          0.46463       -0.73753       -2.17512
H         -2.64088       -0.29820        1.39705
H         -2.22529        0.78735       -1.32324
H         -3.68631        0.99054       -0.36018
H         -2.56259        3.13920       -0.51190
H         -2.44672        2.57550        1.17705
H          0.56025       -1.04541        2.11333
H          2.92251       -0.27229        2.12096
