33
molCl608_clust-3
C         -2.86785        0.50558       -1.43880
C         -2.44316        0.23371        0.01272
C         -3.42373       -0.75527        0.66174
C         -2.45912        1.55493        0.79788
Si        -0.68151       -0.49705        0.01453
C         -0.58952       -2.05943       -1.00398
C         -0.09581       -0.81261        1.77274
O          0.34986        0.59061       -0.74559
C          0.98269        1.71245       -0.21301
C          2.49846        1.64594       -0.36068
C          3.20734        0.61408        0.50252
Cl         3.10746       -1.07160       -0.12701
H         -2.93057       -0.42315       -2.02796
H         -3.86375        0.98220       -1.46984
H         -2.15695        1.17589       -1.94720
H         -3.44791       -1.72052        0.13068
H         -4.45053       -0.34860        0.64627
H         -3.16962       -0.95758        1.71486
H         -3.47559        1.98704        0.80687
H         -1.79135        2.30689        0.34811
H         -2.15492        1.41711        1.84820
H         -0.85152       -1.86314       -2.05447
H         -1.26647       -2.83738       -0.61825
H          0.43859       -2.45023       -0.98004
H          0.92188       -1.23250        1.75170
H         -0.08450        0.09917        2.39012
H         -0.75173       -1.54185        2.27389
H          0.62217        2.61639       -0.73759
H          0.73573        1.85589        0.85857
H          2.76055        1.48971       -1.41880
H          2.90254        2.63239       -0.07328
H          4.28018        0.83400        0.57064
H          2.79347        0.59295        1.52114
