19
molCl467_clust-7
C         -2.50825       -0.63068        1.31845
C         -2.38607       -0.30993       -0.15718
O         -2.77388       -1.07654       -1.00442
C         -1.75878        1.02638       -0.52506
C         -0.40066        1.29405        0.12874
C          0.66632        0.27657       -0.27428
C          2.00663        0.57253        0.37334
Cl         3.25359       -0.63169       -0.09545
H         -2.87396        0.23545        1.89047
H         -1.51742       -0.89341        1.72276
H         -3.17949       -1.48760        1.45245
H         -1.68039        1.05527       -1.62173
H         -2.46958        1.81520       -0.22271
H         -0.06896        2.30652       -0.15452
H         -0.50713        1.31012        1.22729
H          0.35316       -0.74346        0.00461
H          0.78407        0.27210       -1.36982
H          1.93696        0.54815        1.46984
H          2.38752        1.55917        0.07520
