27
molCl1174_clust-3
C         -5.50890       -1.03770       -0.31149
O         -4.09994       -0.95962       -0.18559
C         -3.58243        0.27067       -0.08483
O         -4.25733        1.26907       -0.09702
C         -2.09700        0.25879        0.04171
C         -1.35433       -0.92258        0.05537
C          0.03371       -0.87794        0.17572
C          0.70873        0.34204        0.28363
C          2.21198        0.44848        0.41249
C          2.98249       -0.86487        0.46100
C          4.48289       -0.68622        0.61158
Cl         5.22177        0.14612       -0.80502
C         -0.05122        1.52225        0.26829
C         -1.43258        1.48623        0.14963
H         -5.85124       -0.51047       -1.21375
H         -5.75279       -2.10364       -0.38054
H         -6.00565       -0.58998        0.56144
H         -1.86803       -1.88091       -0.02886
H          0.58827       -1.81762        0.18258
H          2.44022        1.03425        1.32032
H          2.59275        1.05063       -0.42891
H          2.78499       -1.46005       -0.44519
H          2.64331       -1.47086        1.31916
H          4.73140       -0.08096        1.49447
H          4.98954       -1.65550        0.69914
H          0.45827        2.48618        0.35033
H         -2.02293        2.40431        0.13756
