30
alkylBr24_conf-6
Br        -0.99217       -1.83865       -0.31517
C          0.08199       -0.46082        0.61632
C          1.56551       -0.82831        0.44671
C          2.47011        0.40600        0.46671
C          3.94690        0.02553        0.48041
C          2.12048        1.30346       -0.73585
C          0.62338        1.26755       -1.09722
C         -0.23391        0.96983        0.13698
C         -1.73150        1.31320        0.00667
C         -1.94510        2.79097       -0.33403
C         -2.50136        0.96732        1.28449
H         -0.22582       -0.57691        1.66264
H          1.85755       -1.55224        1.22283
H          1.71130       -1.33698       -0.51983
H          2.26420        0.96648        1.39584
H          4.58601        0.92154        0.45161
H          4.20789       -0.54694        1.38368
H          4.19944       -0.59379       -0.39582
H          2.71482        0.98304       -1.60794
H          2.43339        2.33722       -0.51557
H          0.42420        0.48699       -1.85092
H          0.33624        2.21946       -1.56170
H          0.13977        1.61385        0.95760
H         -2.14665        0.70917       -0.81812
H         -3.01989        3.02485       -0.36295
H         -1.52794        3.06731       -1.31228
H         -1.48429        3.44313        0.42704
H         -2.48994       -0.11018        1.50037
H         -3.55571        1.26877        1.19430
H         -2.07761        1.49979        2.15316
