26
alkylBr23_conf-3
Br        -3.50702       -0.41870        0.32172
C         -2.12289        0.32311       -0.80083
C         -1.26205        1.45245       -0.19067
N         -0.09038        0.66650       -0.53773
C          1.16504        0.79713       -0.02841
O          1.88234       -0.29679       -0.31397
C          3.27146       -0.42789        0.08624
C          3.38239       -0.39610        1.60979
C          4.11078        0.66642       -0.57117
C          3.65775       -1.80121       -0.45335
O          1.53812        1.77482        0.57897
C         -0.83279       -0.51302       -0.95543
H         -2.60148        0.58756       -1.74964
H         -1.33228        2.42830       -0.69463
H         -1.39304        1.59580        0.89399
H          3.09595        0.58648        2.00414
H          2.73094       -1.16317        2.05487
H          4.41890       -0.61075        1.90916
H          3.97348        0.64725       -1.66272
H          5.17571        0.49439       -0.35584
H          3.82849        1.65712       -0.19433
H          4.70690       -2.02324       -0.21079
H          3.02315       -2.58217       -0.00990
H          3.53601       -1.83422       -1.54570
H         -0.61300       -0.86328       -1.97545
H         -0.75306       -1.36072       -0.25628
