21
alkylBr33_conf-1
Br        -1.68052       -0.02586       -0.37343
C         -0.36495        0.25477        1.07141
C          0.45102       -1.00848        1.34082
C          1.10427       -1.74478        0.16522
C          1.78854       -0.90260       -0.92390
C          2.40245        0.43081       -0.48570
C          1.38578        1.57046       -0.36795
C          0.45529        1.52148        0.84094
H         -1.00958        0.43490        1.94159
H          1.22843       -0.70240        2.06295
H         -0.18564       -1.72950        1.87692
H          1.83797       -2.44041        0.60486
H          0.34586       -2.38002       -0.31831
H          1.06180       -0.68857       -1.72433
H          2.56824       -1.52553       -1.39011
H          3.15342        0.72689       -1.23532
H          2.95759        0.31320        0.46273
H          0.78027        1.60009       -1.28977
H          1.92241        2.53223       -0.32691
H          1.05485        1.65268        1.76066
H         -0.23168        2.38139        0.80009
