26
alkylBr23_conf-1
Br         3.50775       -0.41825       -0.32151
C          2.12282        0.32239        0.80084
C          1.26216        1.45216        0.19106
N          0.09055        0.66540        0.53609
C         -1.16538        0.79697        0.02835
O         -1.88248       -0.29727        0.31314
C         -3.27190       -0.42782       -0.08628
C         -4.11080        0.66549        0.57334
C         -3.65781       -1.80193        0.45161
C         -3.38381       -0.39373       -1.60970
O         -1.53896        1.77554       -0.57729
C          0.83271       -0.51413        0.95394
H          2.60079        0.58613        1.75016
H          1.33159        2.42744        0.69627
H          1.39422        1.59689       -0.89329
H         -3.97244        0.64491        1.66473
H         -3.82912        1.65678        0.19759
H         -5.17591        0.49351        0.35882
H         -3.02333       -2.58221        0.00676
H         -4.70705       -2.02372        0.20923
H         -3.53554       -1.83646        1.54385
H         -4.42062       -0.60740       -1.90871
H         -3.09715        0.58935       -2.00269
H         -2.73303       -1.16045       -2.05637
H          0.61215       -0.86478        1.97368
H          0.75380       -1.36164        0.25448
