32
alkylBr22_conf-3
O         -1.30800        1.34999       -1.41301
C         -0.98518        1.03698       -0.28646
O         -1.71288        0.28480        0.54771
C         -2.91366       -0.39884        0.10808
C         -2.58434       -1.34265       -1.04762
C         -3.98992        0.61821       -0.26762
C         -3.32851       -1.19037        1.34461
N          0.18326        1.43220        0.30603
C          0.65888        0.90837        1.57782
C          2.17882        0.70362        1.53273
C          2.65498        0.25400        0.15807
Br         1.87951       -1.50991       -0.27781
C          2.31086        1.30025       -0.91630
C          1.13800        2.18912       -0.47699
H         -3.46375       -1.96044       -1.28234
H         -2.29503       -0.78113       -1.94420
H         -1.75594       -2.00983       -0.76597
H         -3.68439        1.20241       -1.14389
H         -4.93025        0.09453       -0.49566
H         -4.17354        1.30491        0.57235
H         -4.25203       -1.75242        1.14411
H         -3.50766       -0.51340        2.19252
H         -2.54009       -1.90257        1.62875
H          0.15974       -0.04910        1.76528
H          0.39531        1.58394        2.41110
H          2.70483        1.64841        1.75462
H          2.47972       -0.01197        2.31077
H          3.73119        0.04795        0.17190
H          2.07864        0.80157       -1.86668
H          3.19942        1.92766       -1.09377
H          1.50117        3.03491        0.13108
H          0.61438        2.60527       -1.34447
