21
alkylBr33_conf-2
Br        -2.18838       -0.01783       -0.04643
C         -0.22550       -0.00390       -0.24822
C          0.28745        1.36008        0.21237
C          1.75025        1.65978       -0.12576
C          2.79159        0.62969        0.31982
C          2.73727       -0.67648       -0.47978
C          1.70613       -1.71269       -0.01164
C          0.36834       -1.18251        0.52584
H         -0.07899       -0.13260       -1.33087
H         -0.33699        2.14766       -0.23494
H          0.13526        1.42569        1.30338
H          1.84700        1.79747       -1.21738
H          1.99210        2.63737        0.32160
H          2.69271        0.42607        1.40085
H          3.78775        1.08104        0.18921
H          3.72804       -1.15734       -0.47221
H          2.54836       -0.41857       -1.53635
H          2.14894       -2.33183        0.78554
H          1.50796       -2.40389       -0.84713
H         -0.34597       -2.01742        0.52870
H          0.47407       -0.87334        1.57889
