32
alkylBr22_conf-1
O         -2.04208       -1.78496        0.33797
C         -1.67695       -0.65081        0.11091
O         -2.48477        0.40681       -0.06035
C         -3.92626        0.29526        0.05218
C         -4.40130        1.72349       -0.19742
C         -4.31212       -0.16144        1.45825
C         -4.46590       -0.64618       -1.02357
N         -0.36865       -0.28088       -0.00984
C          0.03844        1.08274       -0.32520
C          1.49988        1.28538        0.06189
C          2.42158        0.33584       -0.71022
Br         4.10022        0.10518        0.28621
C          1.74040       -1.01242       -0.98109
C          0.65792       -1.31379        0.04559
H         -5.49841        1.77385       -0.14548
H         -3.98422        2.40667        0.55678
H         -4.08184        2.06752       -1.19187
H         -3.86992        0.50893        2.21059
H         -5.40599       -0.12810        1.56991
H         -3.96678       -1.18504        1.64696
H         -5.56579       -0.63529       -1.00641
H         -4.11707       -1.67217       -0.85555
H         -4.13486       -0.31473       -2.01934
H         -0.11385        1.30331       -1.39871
H         -0.59296        1.78707        0.23090
H          1.79499        2.33038       -0.10772
H          1.60050        1.09726        1.14143
H          2.74600        0.78984       -1.65487
H          2.47806       -1.82501       -1.01694
H          1.27073       -0.96538       -1.97760
H          0.17505       -2.27769       -0.15564
H          1.09998       -1.37963        1.05621
