21
alkylBr33_conf-3
Br        -2.07907       -0.01550       -0.20791
C         -0.36424        0.27683        0.72981
C          0.40361        1.37246       -0.01251
C          1.90032        1.45954        0.31916
C          2.77099        0.52772       -0.53096
C          2.64084       -0.96934       -0.24679
C          1.21839       -1.53820       -0.25177
C          0.36397       -1.05246        0.92329
H         -0.68575        0.64451        1.71342
H          0.29988        1.21188       -1.09738
H         -0.09221        2.33250        0.19584
H          2.07546        1.28066        1.39473
H          2.22793        2.49433        0.13367
H          3.82862        0.81229       -0.40637
H          2.53188        0.71545       -1.59287
H          3.24962       -1.51450       -0.98640
H          3.09430       -1.19040        0.73642
H          1.28933       -2.63553       -0.19927
H          0.71023       -1.31671       -1.20637
H         -0.38058       -1.81175        1.20209
H          1.01535       -0.93946        1.80798
