30
alkylBr24_conf-3
Br         0.58510       -1.79665       -0.03964
C          0.18921       -0.17427        1.02681
C          1.46435        0.61683        1.32213
C          1.98219        1.52336        0.19059
C          2.75530        0.79041       -0.90910
C          0.82891        2.36558       -0.37669
C         -0.38128        1.51788       -0.77049
C         -0.90520        0.71085        0.42051
C         -2.27260        0.01558        0.19098
C         -2.49738       -0.49771       -1.23423
C         -3.41582        0.95192        0.59304
H         -0.18424       -0.61542        1.96047
H          1.21127        1.26357        2.18174
H          2.25620       -0.06293        1.67153
H          2.69638        2.21751        0.66540
H          3.23938        1.51878       -1.57818
H          3.54142        0.14942       -0.48193
H          2.10911        0.14671       -1.52152
H          1.18470        2.94790       -1.24175
H          0.51077        3.10109        0.38332
H         -0.11895        0.83511       -1.59501
H         -1.18201        2.17065       -1.15270
H         -1.07412        1.44409        1.23359
H         -2.30635       -0.85771        0.86628
H         -1.68275       -1.15116       -1.57221
H         -3.43389       -1.07403       -1.28298
H         -2.58855        0.33531       -1.94899
H         -3.35002        1.24101        1.65349
H         -4.39481        0.47440        0.43434
H         -3.39801        1.87586       -0.00881
