32
alkylBr32_conf-3
O          1.08795       -0.83868        1.49805
C          0.98772        0.12044        0.76484
O          1.92348        0.53275       -0.09978
C          3.16533       -0.19449       -0.28486
C          3.97447       -0.19602        1.01107
C          3.87894        0.61677       -1.36211
C          2.87388       -1.60928       -0.78268
N         -0.11350        0.93549        0.72711
C         -0.26923        2.08945       -0.14227
C         -1.45771        1.90489       -1.08481
C         -2.72302        1.54726       -0.30584
C         -2.50204        0.36454        0.63373
Br        -2.32142       -1.30474       -0.38951
C         -1.27234        0.58259        1.51293
H          3.46179       -0.76982        1.79229
H          4.96228       -0.64451        0.82844
H          4.12565        0.83458        1.36598
H          4.04889        1.64803       -1.01971
H          3.27699        0.65012       -2.28189
H          4.85196        0.16226       -1.59772
H          3.81800       -2.11118       -1.04135
H          2.24464       -1.57210       -1.68457
H          2.35662       -2.19732       -0.01518
H         -0.43122        2.98481        0.48834
H          0.65954        2.24150       -0.69961
H         -1.22621        1.10245       -1.80291
H         -1.61844        2.82678       -1.66420
H         -3.56650        1.34829       -0.98242
H         -3.01691        2.40447        0.32752
H         -3.38321        0.19804        1.26627
H         -1.03375       -0.30662        2.10709
H         -1.51344        1.40841        2.21070
