32
alkylBr32_conf-2
O          1.38940        1.47339       -1.31700
C          0.99563        0.98010       -0.28240
O          1.71911        0.20294        0.53549
C          3.03624       -0.27674        0.16482
C          3.41673       -1.17382        1.33884
C          4.00892        0.89515        0.04445
C          2.95196       -1.08996       -1.12611
N         -0.26904        1.18034        0.19684
C         -1.17654        1.94595       -0.65416
C         -2.50349        2.16093        0.06079
C         -3.17386        0.83878        0.45827
C         -2.14942       -0.19878        0.95611
Br        -1.82133       -1.59293       -0.39515
C         -0.82400        0.45849        1.32249
H          4.41880       -1.59884        1.18354
H          3.42230       -0.59908        2.27646
H          2.69846       -2.00044        1.44106
H          4.01410        1.48191        0.97532
H          3.72711        1.55136       -0.78765
H          5.02677        0.51467       -0.12785
H          2.69059       -0.45045       -1.97790
H          2.19008       -1.87772       -1.02701
H          3.92204       -1.56887       -1.32527
H         -1.33596        1.40958       -1.60660
H         -0.70710        2.90686       -0.90934
H         -3.17252        2.74134       -0.59029
H         -2.33149        2.78076        0.95577
H         -3.73971        0.42443       -0.38742
H         -3.90678        1.02296        1.25931
H         -2.53390       -0.75616        1.81864
H         -0.09556       -0.28318        1.66251
H         -1.01831        1.13985        2.17251
