20
alkylBr21_conf-7
Br         1.52290       -0.96349       -0.43769
C          1.11580        0.53345        0.77419
C          0.29053        1.57821        0.03742
C         -1.03983        1.09205       -0.49673
O         -1.65510        0.29003        0.37670
C         -2.89904       -0.27886       -0.03226
C         -3.34413       -1.24518        1.04004
O         -1.50677        1.40739       -1.55722
C          2.40288        1.09583        1.34791
H          0.50505        0.07164        1.55951
H          0.84804        2.00954       -0.80529
H          0.07583        2.39873        0.74515
H         -3.62984        0.53062       -0.18722
H         -2.75843       -0.77859       -1.00298
H         -2.60114       -2.04425        1.17508
H         -3.48022       -0.73041        2.00212
H         -4.30114       -1.70555        0.75594
H          2.16393        1.89335        2.06971
H          2.97776        0.31979        1.87059
H          3.03618        1.52471        0.55736
