30
alkylBr24_conf-5
Br        -1.99831       -1.16539       -0.01095
C         -0.18499       -0.63510        0.54386
C          0.82827       -1.25906       -0.40849
C          2.25912       -1.07154        0.10920
C          3.28197       -1.67660       -0.84666
C          2.52239        0.41082        0.37473
C          1.45922        1.02881        1.28280
C          0.01331        0.87906        0.75644
C         -0.35194        1.77907       -0.46537
C          0.55706        2.99877       -0.65415
C         -1.79722        2.28362       -0.36348
H         -0.09145       -1.12254        1.52460
H          0.60826       -2.33054       -0.52885
H          0.73341       -0.80304       -1.40933
H          2.33379       -1.60457        1.07586
H          4.30512       -1.56490       -0.45636
H          3.09596       -2.74959       -1.00680
H          3.24159       -1.17871       -1.82927
H          2.55204        0.93785       -0.59443
H          3.51918        0.54085        0.82686
H          1.68101        2.08877        1.46957
H          1.51491        0.53542        2.26877
H         -0.64984        1.18035        1.58478
H         -0.27158        1.16562       -1.37984
H          0.21013        3.58804       -1.51640
H          1.60765        2.73890       -0.83954
H          0.52264        3.66146        0.22588
H         -2.08166        2.83648       -1.27199
H         -1.89742        2.97375        0.49112
H         -2.51608        1.46774       -0.22479
