30
alkylBr24_conf-4
Br         2.12001       -0.97871       -0.03811
C          0.27345       -0.60696       -0.60997
C         -0.71388       -1.34443        0.28968
C         -2.15657       -1.16290       -0.20071
C         -3.14437       -1.87799        0.71542
C         -2.48169        0.32440       -0.35315
C         -1.46823        1.03584       -1.24811
C          0.00543        0.89587       -0.80537
C          0.48482        1.85951        0.31339
C          0.03901        1.56761        1.74819
C          0.17531        3.31402       -0.05102
H          0.23471       -1.07374       -1.60491
H         -0.45612       -2.41472        0.30377
H         -0.63614       -0.98843        1.32742
H         -2.22631       -1.62054       -1.20590
H         -2.91595       -2.95202        0.79220
H         -3.11076       -1.45445        1.73252
H         -4.17571       -1.77684        0.34428
H         -2.51379        0.79156        0.64485
H         -3.49205        0.44085       -0.77828
H         -1.72579        2.09963       -1.35167
H         -1.55448        0.60981       -2.26315
H          0.60922        1.19299       -1.67991
H          1.58281        1.75990        0.31057
H          0.45232        2.33293        2.42335
H         -1.05483        1.58989        1.86398
H          0.40826        0.59563        2.10242
H          0.73568        4.00014        0.60182
H         -0.89387        3.55015        0.07278
H          0.45278        3.54218       -1.09227
