32
alkylBr22_conf-4
O         -1.94277        1.82396       -0.12088
C         -1.51231        0.69278       -0.20250
O         -2.25965       -0.41981       -0.15698
C         -3.70223       -0.36817       -0.01582
C         -4.07817        0.28695        1.31248
C         -4.09913       -1.84144       -0.01808
C         -4.32363        0.35662       -1.20863
N         -0.18684        0.39411       -0.35678
C          0.36794       -0.94820       -0.34412
C          1.25476       -1.14664        0.88482
C          2.30936       -0.05148        1.02031
Br         3.72595       -0.29388       -0.33640
C          1.69027        1.33848        0.89972
C          0.79028        1.46771       -0.32797
H         -5.16522        0.21517        1.46514
H         -3.58020       -0.23114        2.14605
H         -3.78601        1.34386        1.32432
H         -3.79253       -2.32215       -0.95845
H         -3.61814       -2.37213        0.81657
H         -5.18904       -1.94162        0.08637
H         -3.99445       -0.10920       -2.14958
H         -4.03819        1.41530       -1.21703
H         -5.41993        0.28332       -1.15441
H          0.96519       -1.09727       -1.26049
H         -0.44781       -1.67650       -0.35437
H          1.72743       -2.13935        0.86480
H          0.62079       -1.10125        1.78753
H          2.85322       -0.15313        1.96724
H          2.47250        2.11113        0.88988
H          1.07882        1.50179        1.80420
H          1.40072        1.42740       -1.24661
H          0.24893        2.42015       -0.31799
