16
alkylBr31_conf-1
Br        -1.90633        0.00551       -0.04412
C         -0.01182        0.03589        0.42538
C          0.66600       -1.23273       -0.09249
O          2.02576       -1.22899        0.24538
C          2.73135       -0.15029       -0.31915
C          2.18048        1.18631        0.16437
C          0.67834        1.27734       -0.12405
H          0.01416        0.03600        1.52410
H          0.52826       -1.29449       -1.19183
H          0.21782       -2.12814        0.35892
H          2.67765       -0.19990       -1.42687
H          3.78366       -0.27686       -0.02921
H          2.71514        2.01619       -0.32325
H          2.36025        1.27414        1.24854
H          0.24202        2.18862        0.31046
H          0.51039        1.32421       -1.21389
