13
alkylBr25_conf-2
Br        -1.43177       -0.02085       -0.15462
C          0.23054        0.13159        0.87665
C          1.13481        1.23659        0.33641
O          1.94467        0.64667       -0.65116
C          1.83017       -0.76298       -0.62443
C          1.11219       -1.09575        0.68269
H         -0.09039        0.29751        1.91094
H          0.57463        2.08320       -0.08698
H          1.75794        1.62099        1.16844
H          2.83327       -1.21282       -0.68290
H          1.24607       -1.11111       -1.49530
H          1.83032       -1.13605        1.51843
H          0.55662       -2.04185        0.66045
