32
alkylBr22_conf-2
O         -2.21516        1.79649       -0.44860
C         -1.67189        0.79690       -0.02714
O         -2.26491       -0.39146        0.15850
C         -3.67322       -0.59741       -0.11891
C         -4.52448        0.30828        0.76977
C         -3.88425       -2.06293        0.24909
C         -3.95434       -0.37071       -1.60363
N         -0.35403        0.73538        0.32395
C          0.28226       -0.49532        0.78361
C          1.59178       -0.15981        1.48252
C          2.57416        0.57129        0.56360
Br         3.73071       -0.70167       -0.39020
C          1.84163        1.46801       -0.44528
C          0.48316        1.90366        0.09518
H         -5.58817        0.06076        0.63761
H         -4.37072        1.36394        0.51551
H         -4.26555        0.15445        1.82821
H         -3.64711       -2.23283        1.30947
H         -3.23590       -2.70997       -0.35933
H         -4.93062       -2.35191        0.07447
H         -3.29507       -1.00415       -2.21597
H         -4.99649       -0.64227       -1.82802
H         -3.79372        0.67907       -1.87711
H         -0.39252       -1.01678        1.47400
H          0.47071       -1.18307       -0.06109
H          1.37477        0.49967        2.33926
H          2.04708       -1.07012        1.89466
H          3.28155        1.15329        1.16707
H          1.67247        0.91204       -1.37943
H          2.45589        2.34331       -0.69985
H          0.60184        2.49364        1.02279
H         -0.03326        2.54977       -0.62516
