13
alkylBr25_conf-1
Br        -1.63219       -0.01226       -0.03579
C          0.24305       -0.01299        0.45315
C          1.01780        1.17548       -0.10991
O          2.36371        0.78416       -0.01370
C          2.47252       -0.63090       -0.03601
C          1.04227       -1.18328       -0.10547
H          0.26389       -0.00304        1.55117
H          0.71549        1.36011       -1.15945
H          0.86740        2.10179        0.46294
H          2.99169       -0.95882        0.88054
H          3.07974       -0.95134       -0.89852
H          0.90523       -2.11314        0.46224
H          0.73974       -1.36945       -1.14712
