17
alkylBr29_conf-4
C         -1.00655        2.04715       -0.55761
C         -0.84754        1.23699        0.72313
C         -0.37072       -0.20245        0.54040
Br         1.51321       -0.22478       -0.04818
C         -1.19720       -1.05926       -0.41496
C         -2.66329       -1.16514       -0.00108
H         -0.06270        2.08320       -1.12188
H         -1.30110        3.08059       -0.32512
H         -1.77947        1.62416       -1.21736
H         -1.81360        1.18915        1.25550
H         -0.15352        1.74745        1.40838
H         -0.32849       -0.68936        1.52511
H         -1.11967       -0.65138       -1.43544
H         -0.74979       -2.06410       -0.45323
H         -2.76348       -1.52443        1.03546
H         -3.19549       -1.87395       -0.65172
H         -3.18325       -0.19788       -0.07281
