15
alkylBr30_conf-1
Br         1.66156        0.00001       -0.02468
C         -0.23680       -0.00062        0.41401
C         -0.99484        1.19901       -0.14409
C         -2.46908        0.77703       -0.00092
C         -2.46845       -0.77735        0.00325
C         -0.99512       -1.19831       -0.14747
H         -0.26898       -0.00242        1.51339
H         -0.75128        2.13770        0.37265
H         -0.72608        1.32480       -1.20501
H         -2.88862        1.16226        0.94041
H         -3.08465        1.19268       -0.81112
H         -2.87973       -1.15743        0.95037
H         -3.09005       -1.19855       -0.79942
H         -0.73006       -1.31857       -1.21002
H         -0.74938       -2.13937        0.36391
