18
alkylBr19_conf-1
Br        -1.61226       -0.00000       -0.26123
C         -0.09178       -0.00000        1.00285
C          0.74465       -1.26481        0.82960
C          1.56359       -1.26460       -0.46138
C          2.41638        0.00000       -0.58239
C          1.56359        1.26460       -0.46138
C          0.74465        1.26481        0.82960
H         -0.58868       -0.00000        1.98101
H          1.43128       -1.30461        1.69531
H          0.10367       -2.15632        0.89414
H          2.19948       -2.16272       -0.49444
H          0.87875       -1.33127       -1.32323
H          3.18157        0.00000        0.21521
H          2.96329        0.00000       -1.53802
H          0.87875        1.33127       -1.32323
H          2.19947        2.16273       -0.49444
H          0.10367        2.15632        0.89414
H          1.43128        1.30461        1.69531
