20
alkylBr21_conf-4
Br         1.74577       -1.05714        0.01768
C          1.45410        0.88709        0.12304
C          0.09927        1.22475       -0.47732
C         -1.05288        0.71383        0.36108
O         -2.06645        0.29436       -0.39402
C         -3.22327       -0.18674        0.29369
C         -4.23541       -0.61934       -0.74082
O         -1.06736        0.71526        1.56397
C          2.60433        1.61600       -0.54512
H          1.42657        1.08950        1.20165
H          0.01061        0.86298       -1.51089
H          0.00116        2.32461       -0.50490
H         -2.92517       -1.01828        0.95087
H         -3.61316        0.61331        0.94253
H         -3.82821       -1.41924       -1.37559
H         -5.13981       -0.99803       -0.24363
H         -4.52213        0.22330       -1.38628
H          2.64589        1.39221       -1.62142
H          2.46952        2.70271       -0.42241
H          3.56630        1.33631       -0.09547
