17
alkylBr29_conf-3
C         -1.52418       -1.68142       -0.73268
C         -1.08062       -1.31250        0.67930
C         -0.32326       -0.00006        0.88914
Br         1.36544       -0.00011       -0.13938
C         -1.08047        1.31250        0.67945
C         -1.52353        1.68190       -0.73257
H         -0.68161       -1.63088       -1.43780
H         -2.32175       -1.02738       -1.10867
H         -1.91144       -2.71068       -0.74528
H         -1.96033       -1.26764        1.34625
H         -0.44516       -2.12135        1.07362
H          0.04014       -0.00015        1.92548
H         -0.44509        2.12120        1.07421
H         -1.96039        1.26750        1.34611
H         -1.91103        2.71106       -0.74489
H         -0.68065        1.63185       -1.43734
H         -2.32077        1.02782       -1.10919
