16
alkylBr31_conf-2
Br        -1.60552        0.00929       -0.24467
C         -0.06760       -0.03166        0.97778
C          0.79157       -1.26587        0.71349
O          1.47998       -1.20226       -0.49798
C          2.33830       -0.09138       -0.59095
C          1.57760        1.22388       -0.45938
C          0.76864        1.23792        0.83730
H         -0.51847       -0.10147        1.97620
H          1.50419       -1.34845        1.56411
H          0.17911       -2.17732        0.69763
H          2.84111       -0.16446       -1.56511
H          3.11998       -0.15266        0.19645
H          2.28281        2.06886       -0.48258
H          0.90017        1.33636       -1.32037
H          0.13428        2.13267        0.91145
H          1.45930        1.26190        1.70019
