20
alkylBr21_conf-2
Br        -1.53598       -1.14472        0.13237
C         -1.58742        0.69405       -0.57597
C         -0.21901        1.05815       -1.15225
C          0.90275        1.02370       -0.13525
O          1.84191        0.14077       -0.46928
C          2.92872       -0.01814        0.44404
C          3.84574       -1.08588       -0.10429
O          0.95271        1.70771        0.85484
C         -2.12016        1.64462        0.48057
H         -2.29743        0.62351       -1.41044
H         -0.28287        2.08999       -1.53612
H          0.02929        0.39437       -1.98979
H          2.52426       -0.29065        1.43120
H          3.44350        0.94848        0.56108
H          4.69350       -1.23811        0.57886
H          3.31099       -2.04024       -0.21254
H          4.24148       -0.79658       -1.08845
H         -2.19383        2.65576        0.04897
H         -3.12082        1.33521        0.81122
H         -1.44951        1.69660        1.34750
