29
alkylBr26_conf-3
Br         3.94264       -0.22641        0.02985
C          2.12500        0.25621       -0.44392
C          1.08835       -0.75334        0.04593
N         -0.12167        0.05021        0.06058
C         -1.35138       -0.53206        0.04041
O         -2.30653        0.40929        0.00744
C         -3.71645        0.06860       -0.00908
C         -4.39943        1.43242       -0.03600
C         -4.08788       -0.69471        1.26131
C         -4.05002       -0.72523       -1.27130
O         -1.52710       -1.73118        0.04980
C          0.13310        1.48572        0.00916
C          1.65431        1.57335        0.16501
H          2.11580        0.31093       -1.54105
H          1.34660       -1.12494        1.05324
H          0.97862       -1.62359       -0.61517
H         -5.49198        1.31015       -0.05251
H         -4.09691        1.99750       -0.92958
H         -4.12632        2.01814        0.85374
H         -3.59106       -1.67202        1.29085
H         -5.17674       -0.84742        1.29536
H         -3.79420       -0.11788        2.15120
H         -5.13755       -0.87811       -1.33495
H         -3.55421       -1.70341       -1.26208
H         -3.72874       -0.17022       -2.16555
H         -0.20526        1.90862       -0.95216
H         -0.40413        2.01833        0.80700
H          1.93102        1.60174        1.23021
H          2.08987        2.45432       -0.32440
