29
alkylBr26_conf-1
Br        -3.04472       -0.87477       -0.22024
C         -2.43550        0.88277        0.40791
C         -1.20928        0.74938        1.30335
N         -0.10787        0.75375        0.35757
C          1.09877        0.22358        0.69356
O          1.92460        0.24694       -0.36284
C          3.27913       -0.26522       -0.28484
C          3.81508       -0.03680       -1.69474
C          3.25792       -1.75632        0.04816
C          4.08635        0.53708        0.73479
O          1.36200       -0.19841        1.79928
C         -0.49301        1.19907       -0.97580
C         -1.91565        1.71947       -0.75844
H         -3.30110        1.31791        0.91874
H         -1.20017       -0.15769        1.92149
H         -1.15963        1.61783        1.98681
H          4.85330       -0.39115       -1.76882
H          3.79149        1.03320       -1.94762
H          3.20582       -0.58073       -2.43106
H          2.63222       -2.29862       -0.67654
H          2.86182       -1.92610        1.05670
H          4.27889       -2.16218       -0.00750
H          5.13910        0.21920        0.70534
H          3.69747        0.38525        1.74901
H          4.04483        1.60991        0.49329
H          0.18781        1.97522       -1.35353
H         -0.47308        0.35991       -1.69085
H         -2.54516        1.66065       -1.65517
H         -1.88908        2.77197       -0.43016
