20
alkylBr21_conf-5
Br        -2.74707       -0.51942       -0.06078
C         -1.10356        0.55702       -0.14289
C          0.09050       -0.36445        0.06412
C          1.40524        0.30769       -0.26940
O          2.43717       -0.43044        0.13891
C          3.74473        0.06734       -0.15476
C          4.75266       -0.91543        0.39294
O          1.52333        1.35714       -0.84800
C         -1.18169        1.69497        0.85802
H         -1.08605        0.95274       -1.16608
H          0.01373       -1.25223       -0.58340
H          0.13121       -0.74331        1.09702
H          3.84332        0.19340       -1.24436
H          3.85658        1.06575        0.29613
H          4.64170       -1.02555        1.48115
H          4.62724       -1.90474       -0.06980
H          5.77196       -0.56141        0.18278
H         -0.28462        2.32366        0.75476
H         -2.06395        2.32287        0.67524
H         -1.23484        1.31199        1.88831
