15
alkylBr30_conf-2
Br        -1.41536       -0.00000       -0.17393
C          0.21134        0.00035        0.93997
C          1.09711        1.19436        0.60084
C          1.85036        0.77536       -0.67508
C          1.84950       -0.77612       -0.67495
C          1.09700       -1.19396        0.60170
H         -0.16673        0.00076        1.96897
H          1.80269        1.31922        1.44029
H          0.54010        2.13569        0.50094
H          1.32931        1.15790       -1.56443
H          2.86598        1.19548       -0.69624
H          1.32689       -1.15814       -1.56362
H          2.86457       -1.19749       -0.69723
H          0.54005       -2.13546        0.50304
H          1.80302       -1.31784        1.44094
