19
alkylBr20_conf-1
Br         2.00094       -0.04510        0.00945
C          0.13947       -0.09365       -0.61200
C         -0.54847        1.29278       -0.52993
C         -1.76117        1.02480        0.38236
C         -2.77603        0.16473       -0.39096
C         -2.06135       -1.21289       -0.48006
C         -0.73966       -0.98010        0.28318
C         -1.17972        0.00603        1.37605
H          0.21719       -0.48234       -1.63410
H         -0.83785        1.66346       -1.52453
H          0.12278        2.03848       -0.08290
H         -2.18700        1.93946        0.81660
H         -3.01156        0.59035       -1.37781
H         -3.72317        0.08707        0.16336
H         -1.88971       -1.54357       -1.51553
H         -2.64535       -2.00204        0.01573
H         -0.24344       -1.90246        0.60989
H         -1.93350       -0.41703        2.05730
H         -0.33980        0.39679        1.96943
