30
alkylBr24_conf-2
Br         0.14668        1.72821       -0.18553
C         -0.02273        0.11988        0.95961
C         -1.47676       -0.08783        1.39064
C         -2.41385       -0.73964        0.35750
C         -2.93570        0.21361       -0.72115
C         -1.74604       -1.98464       -0.24725
C         -0.33610       -1.70040       -0.76617
C          0.56602       -1.15499        0.34356
C          2.07520       -1.16897       -0.00929
C          2.92791       -0.52312        1.08355
C          2.45044       -0.62320       -1.39053
H          0.56478        0.41347        1.83758
H         -1.42577       -0.75719        2.26840
H         -1.89770        0.86229        1.75305
H         -3.29592       -1.08019        0.92613
H         -3.73238       -0.27638       -1.30224
H         -3.35644        1.12722       -0.27431
H         -2.15027        0.52726       -1.42233
H         -2.37683       -2.38922       -1.05498
H         -1.68454       -2.77310        0.52358
H         -0.37428       -0.98013       -1.60002
H          0.10655       -2.62374       -1.17364
H          0.47738       -1.86723        1.18893
H          2.33275       -2.24378       -0.02672
H          2.78931        0.56972        1.10558
H          2.68122       -0.92098        2.08123
H          3.99683       -0.71381        0.90490
H          2.27263        0.45750       -1.46954
H          1.88872       -1.11914       -2.19538
H          3.52007       -0.80398       -1.57948
