16
alkylBr27_conf-2
Br         1.92622        0.00000       -0.03278
C          0.01585       -0.00000        0.39655
C         -0.66780        1.25063       -0.13789
C         -2.16753        1.16745        0.15367
O         -2.73754        0.00000       -0.37417
C         -2.16754       -1.16745        0.15367
C         -0.66780       -1.25063       -0.13789
H         -0.01225       -0.00000        1.49678
H         -0.24117        2.15743        0.31634
H         -0.51358        1.31521       -1.22679
H         -2.33861        1.21609        1.24998
H         -2.69469        2.01717       -0.30191
H         -2.33861       -1.21609        1.24998
H         -2.69469       -2.01717       -0.30191
H         -0.51358       -1.31521       -1.22679
H         -0.24117       -2.15743        0.31635
