17
alkylBr29_conf-1
C          0.21115        2.54158        0.15087
C         -0.67610        1.43100       -0.39665
C         -0.50696        0.07311        0.27301
Br         1.32861       -0.59878       -0.00082
C         -1.48910       -0.99468       -0.20429
C         -2.94307       -0.68846        0.15101
H          1.27571        2.31954       -0.01049
H          0.05556        2.67592        1.23298
H         -0.01558        3.49802       -0.34208
H         -1.73227        1.72045       -0.26391
H         -0.52228        1.31296       -1.48249
H         -0.57906        0.18328        1.36599
H         -1.20136       -1.95626        0.24668
H         -1.38036       -1.11831       -1.29458
H         -3.58767       -1.53742       -0.11886
H         -3.06208       -0.51119        1.23170
H         -3.32746        0.19499       -0.37970
