18
alkylBr19_conf-2
Br         1.93844       -0.00000       -0.03571
C          0.02414        0.00000        0.39213
C         -0.64003       -1.26412       -0.13990
C         -2.13572       -1.26104        0.19323
C         -2.82483       -0.00000       -0.32873
C         -2.13572        1.26104        0.19323
C         -0.64003        1.26412       -0.13990
H         -0.00117        0.00000        1.49218
H         -0.50211       -1.30445       -1.23394
H         -0.14885       -2.15490        0.27888
H         -2.60812       -2.16297       -0.22570
H         -2.26532       -1.32129        1.28844
H         -2.79361       -0.00000       -1.43273
H         -3.88884       -0.00000       -0.04516
H         -2.26532        1.32129        1.28844
H         -2.60812        2.16297       -0.22570
H         -0.14885        2.15491        0.27888
H         -0.50212        1.30445       -1.23394
