20
alkylBr21_conf-3
Br         1.78076        0.27569       -0.76123
C          1.23621       -0.10561        1.09240
C          0.26623       -1.28704        1.11361
C         -0.95226       -1.20410        0.21572
O         -1.59480       -0.03853        0.33126
C         -2.72645        0.16150       -0.51648
C         -3.21780        1.57509       -0.31053
O         -1.32277       -2.09583       -0.49848
C          0.75894        1.16731        1.76933
H          2.16973       -0.43908        1.56458
H         -0.08961       -1.41262        2.15135
H          0.78623       -2.21095        0.83068
H         -2.42575       -0.02152       -1.55942
H         -3.49795       -0.58352       -0.26582
H         -3.50459        1.74321        0.73762
H         -2.43803        2.30229       -0.57946
H         -4.09707        1.76209       -0.94336
H          0.49637        0.94104        2.81552
H          1.55425        1.92501        1.77117
H         -0.12896        1.57682        1.27377
