20
alkylBr21_conf-6
Br         2.63367       -0.23458       -0.28531
C          0.74018       -0.23398        0.24229
C          0.07147        1.01029       -0.33226
C         -1.42581        1.05934       -0.10583
O         -1.99118       -0.14272       -0.26998
C         -3.40848       -0.21908       -0.10552
C         -3.82354       -1.65980       -0.28923
O         -2.04665        2.05212        0.16146
C          0.62512       -0.34362        1.75171
H          0.32661       -1.12842       -0.23880
H          0.23372        1.05116       -1.42121
H          0.49894        1.92702        0.09661
H         -3.67371        0.16238        0.89282
H         -3.88903        0.44426       -0.84152
H         -3.34022       -2.30636        0.45736
H         -4.91272       -1.75285       -0.17323
H         -3.55009       -2.02221       -1.29051
H         -0.43782       -0.41223        2.03285
H          1.13364       -1.24257        2.12494
H          1.06131        0.53609        2.24763
