16
alkylBr27_conf-1
Br        -1.61128        0.00000       -0.24006
C         -0.06806       -0.00000        0.99403
C          0.77871       -1.25314        0.79108
C          1.60374       -1.17039       -0.48988
O          2.38041        0.00000       -0.52562
C          1.60374        1.17039       -0.48988
C          0.77871        1.25314        0.79108
H         -0.54139       -0.00000        1.98324
H          0.15374       -2.15807        0.79692
H          1.46848       -1.32042        1.64997
H          2.30034       -2.01789       -0.55312
H          0.93335       -1.21763       -1.37116
H          0.93335        1.21763       -1.37116
H          2.30033        2.01789       -0.55312
H          0.15375        2.15807        0.79692
H          1.46848        1.32041        1.64997
