10
alkylBr28_conf-1
Br        -1.32503        0.00000       -0.06197
C          0.49695        0.00000        0.57447
C          1.47251       -1.02738       -0.01147
O          2.41917        0.00000       -0.29187
C          1.47251        1.02738       -0.01147
H          0.44724       -0.00000        1.66904
H          1.85965       -1.78633        0.68725
H          1.10219       -1.52536       -0.92444
H          1.85965        1.78633        0.68725
H          1.10219        1.52536       -0.92444
