29
alkylBr26_conf-2
Br         3.57596       -0.79867        0.05663
C          2.07435        0.31701       -0.45762
C          0.72272       -0.29236       -0.08454
N         -0.13051        0.88394       -0.04603
C         -1.49021        0.87627       -0.00672
O         -1.95008       -0.38358       -0.01504
C         -3.36969       -0.68069        0.01716
C         -3.40265       -2.20548       -0.01436
C         -4.05673       -0.10119       -1.21850
C         -3.98565       -0.15548        1.31306
O         -2.16145        1.88486        0.03214
C          0.60981        2.13913       -0.01542
C          2.05239        1.68442        0.21738
H          2.15540        0.42574       -1.54772
H          0.77536       -0.79446        0.89741
H          0.36994       -1.02751       -0.82030
H         -2.92451       -2.58302       -0.92988
H         -4.44184       -2.56369        0.01065
H         -2.86804       -2.62045        0.85232
H         -4.02826        0.99513       -1.20544
H         -5.10615       -0.42995       -1.24564
H         -3.56107       -0.46059       -2.13288
H         -3.95464        0.94032        1.34615
H         -3.44100       -0.55470        2.18186
H         -5.03303       -0.48419        1.38404
H          0.49874        2.68182       -0.97012
H          0.23237        2.79940        0.77849
H          2.24933        1.56431        1.29393
H          2.79854        2.37765       -0.19217
