30
alkylBr24_conf-1
Br         0.04973        1.90001       -0.36760
C         -0.05133        0.31527        0.82211
C         -1.50455       -0.01344        1.19669
C         -2.13816       -1.13932        0.35891
C         -3.66047       -1.05389        0.38615
C         -1.57283       -1.11369       -1.06075
C         -0.05852       -1.37145       -1.07241
C          0.66749       -0.88042        0.19883
C          2.18181       -0.69124       -0.02396
C          2.83578       -1.99462       -0.49013
C          2.90003       -0.15396        1.21546
H          0.48185        0.66532        1.71142
H         -2.11378        0.90000        1.12219
H         -1.51885       -0.30155        2.26126
H         -1.84820       -2.10599        0.81019
H         -4.04376       -1.04413        1.41854
H         -4.00687       -0.13207       -0.10909
H         -4.11780       -1.90851       -0.13538
H         -1.79398       -0.13068       -1.50815
H         -2.08500       -1.86194       -1.68591
H          0.12840       -2.45041       -1.18420
H          0.39095       -0.88584       -1.95363
H          0.56150       -1.66628        0.97421
H          2.29923        0.05509       -0.82946
H          2.41716       -2.35558       -1.44012
H          3.91665       -1.85356       -0.64056
H          2.70544       -2.79161        0.26145
H          2.71377       -0.79496        2.09404
H          2.58978        0.87142        1.46420
H          3.98750       -0.12848        1.04975
