32
alkylBr32_conf-1
O          1.27048       -1.62976       -0.21292
C          1.30904       -0.42818       -0.36582
O          2.39229        0.33837       -0.18696
C          3.67060       -0.22441        0.20969
C          4.57641        1.00105        0.28031
C          4.16811       -1.20108       -0.85439
C          3.54988       -0.88409        1.58250
N          0.22982        0.32230       -0.75652
C          0.20131        1.77563       -0.77390
C         -0.66175        2.30072        0.37269
C         -2.05716        1.66805        0.34191
C         -1.94922        0.14766        0.30092
Br        -3.71718       -0.67001        0.15221
C         -1.06632       -0.31862       -0.85764
H          5.59248        0.70532        0.57847
H          4.63054        1.49815       -0.69914
H          4.19288        1.72287        1.01612
H          4.19767       -0.70896       -1.83809
H          5.18754       -1.53027       -0.60451
H          3.51543       -2.08024       -0.91551
H          4.54464       -1.20270        1.92738
H          2.89100       -1.75975        1.53998
H          3.14674       -0.16801        2.31452
H         -0.22232        2.10277       -1.74069
H          1.22540        2.15537       -0.71289
H         -0.74488        3.39689        0.31291
H         -0.16198        2.06498        1.32733
H         -2.59717        2.00748       -0.55880
H         -2.65189        1.98490        1.21114
H         -1.53588       -0.23699        1.24428
H         -1.54111       -0.04230       -1.81548
H         -0.92420       -1.40460       -0.83736
