20
alkylBr21_conf-1
Br         1.53614       -1.14465       -0.13240
C          1.58741        0.69402        0.57609
C          0.21889        1.05803        1.15217
C         -0.90280        1.02355        0.13510
O         -1.84218        0.14094        0.46938
C         -2.92910       -0.01791       -0.44385
C         -3.84581       -1.08601        0.10426
O         -0.95261        1.70731       -0.85516
C          2.12029        1.64467       -0.48032
H          2.29729        0.62346        1.41067
H          0.28264        2.08987        1.53609
H         -0.02951        0.39423        1.98966
H         -3.44408        0.94866       -0.56051
H         -2.52473       -0.28992       -1.43118
H         -3.31086       -2.04030        0.21206
H         -4.24142       -0.79715        1.08859
H         -4.69367       -1.23818       -0.57878
H          2.19389        2.65580       -0.04868
H          3.12097        1.33529       -0.81093
H          1.44970        1.69673       -1.34731
