26
alkylBr23_conf-2
Br         3.65162       -0.31351        0.23799
C          2.06840        0.15024       -0.76594
C          0.82906       -0.74820       -0.54190
N          0.12353        0.43828       -0.09236
C         -1.19396        0.72991        0.04911
O         -1.91782       -0.39200       -0.06865
C         -3.36288       -0.38693        0.06294
C         -3.75961        0.08931        1.45941
C         -3.98591        0.47596       -1.03346
C         -3.73232       -1.85405       -0.13111
O         -1.61173        1.84844        0.24943
C          1.24434        1.34695       -0.23316
H          2.38090        0.24216       -1.81130
H          0.41778       -1.20549       -1.45608
H          0.94871       -1.52578        0.22833
H         -4.84665       -0.01617        1.59084
H         -3.25980       -0.52168        2.22593
H         -3.48469        1.14078        1.60769
H         -3.64543        0.13740       -2.02365
H         -3.71362        1.53065       -0.90468
H         -5.08158        0.38450       -0.99802
H         -4.82108       -1.98544       -0.05226
H         -3.40825       -2.20567       -1.12143
H         -3.24766       -2.47772        0.63390
H          1.08115        2.15997       -0.95881
H          1.60271        1.77680        0.71493
