17
alkylBr29_conf-2
C          2.57041        0.87040        0.30145
C          1.27106        1.33194       -0.34509
C         -0.00003        0.72049        0.23266
Br         0.00005       -1.23518       -0.04886
C         -1.27114        1.33185       -0.34510
C         -2.57048        0.87028        0.30146
H          2.56580        1.06596        1.38537
H          3.42964        1.40213       -0.13223
H          2.72869       -0.20761        0.15497
H          1.29402        1.14593       -1.43180
H          1.17156        2.42490       -0.22207
H         -0.00004        0.81971        1.32914
H         -1.17171        2.42483       -0.22212
H         -1.29411        1.14581       -1.43181
H         -2.72872       -0.20774        0.15501
H         -3.42974        1.40196       -0.13223
H         -2.56587        1.06587        1.38537
