20
alkylBr21_conf-8
Br        -1.78096       -0.27521       -0.76129
C         -1.23612        0.10482        1.09253
C         -0.26616        1.28626        1.11443
C          0.95221        1.20392        0.21633
O          1.59492        0.03838        0.33123
C          2.72648       -0.16108       -0.51675
C          3.21824       -1.57461       -0.31134
O          1.32251        2.09602       -0.49750
C         -0.75866       -1.16855        1.76849
H         -2.16956        0.43792        1.56510
H          0.08979        1.41114        2.15221
H         -0.78622        2.21035        0.83218
H          2.42556        0.02219       -1.55959
H          3.49783        0.58406       -0.26599
H          4.09746       -1.76117       -0.94437
H          3.50526       -1.74298        0.73672
H          2.43862       -2.30193       -0.58036
H         -1.55393       -1.92630        1.76994
H          0.12918       -1.57767        1.27248
H         -0.49591       -0.94299        2.81479
